 Compiled for linux_x86_64_ifort on Thu, 05 Aug 2021 16:13:05 +0100
 from code version
 f12f38a+  new-neb-implementation  Thu Aug 5 15:34:27 2021 +0100
 Compiler: Intel Fortran 18.0.3.222; Optimisation: fast
 MATHLIBS: Intel MKL(2018.0.3) (LAPACK version 3.7.0)
 FFT Lib : default
 Fundamental constants values: CODATA 2014

 Run started: Tue, 10 Aug 2021 17:01:42 +0100

 Atomic calculation performed for Cu: 1s2 2s2 2p6 3s2 3p6 3d10 4s1

 Converged in 145 iterations to an ae energy of -45030.712 eV

   | Pseudopotential Report - Date of generation 10-08-2021   |
   | Element: Cu Ionic charge: 11.00 Level of theory: PBE     |
   | Atomic Solver: Koelling-Harmon                           |
   |               Reference Electronic Structure             |
   |         Orbital         Occupation         Energy        |
   |            3d             10.000           -0.185        |
   |            4s              1.000           -0.169        |
   |                 Pseudopotential Definition               |
   |        Beta     l      e      Rc     scheme   norm       |
   |          1      0   -0.169   1.996     qc      0         |
   |          2      0    0.250   1.996     qc      0         |
   |          3      1    0.000   1.996     qc      0         |
   |          4      1    0.250   1.996     qc      0         |
   |          5      2   -0.185   1.996     qc      0         |
   |          6      2    0.250   1.996     qc      0         |
   |         loc     3    0.000   2.206     pn      0         |
   | Augmentation charge Rinner = 0.999                       |
   | Partial core correction Rc = 0.999                       |
   | "3|2.2|2.0|1.0|10|12|13|40:41:32(qc=6)"                  |
   |      Author: Chris J. Pickard, Cambridge University      |

 Pseudo atomic calculation performed for Cu 3d10 4s1

 Converged in 49 iterations to a total energy of -1676.8614 eV
 Calculation parallelised over 16 processes.
 Data is distributed by k-point(16-way)

 ************************************ Title ************************************

 ***************************** General Parameters ******************************

 output verbosity                               : normal  (1)
 write checkpoint data to                       : initial.check
 type of calculation                            : geometry optimization
 stress calculation                             : on
 density difference calculation                 : off
 electron localisation func (ELF) calculation   : off
 Hirshfeld analysis                             : off
 polarisation (Berry phase) analysis            : off
 molecular orbital projected DOS                : off
 deltaSCF calculation                           : off
 unlimited duration calculation
 timing information                             : on
 write extra output files                       : on
 write final potential to formatted file        : off
 write final density to formatted file          : off
 write structure in CELL formatted file         : on
 write BibTeX reference list                    : on
 write OTFG pseudopotential files               : on
 write electrostatic potential file             : on
 write bands file                               : on
 checkpoint writing                             : both castep_bin and check files

 output         length unit                     : A
 output           mass unit                     : amu
 output           time unit                     : ps
 output         charge unit                     : e
 output           spin unit                     : hbar/2
 output         energy unit                     : eV
 output          force unit                     : eV/A
 output       velocity unit                     : A/ps
 output       pressure unit                     : GPa
 output     inv_length unit                     : 1/A
 output      frequency unit                     : cm-1
 output force constant unit                     : eV/A**2
 output         volume unit                     : A**3
 output   IR intensity unit                     : (D/A)**2/amu
 output         dipole unit                     : D
 output         efield unit                     : eV/A/e
 output        entropy unit                     : J/mol/K
 output    efield chi2 unit                     : pm/V

 wavefunctions paging                           : none
 random number generator seed                   : randomised (170142375)
 data distribution                              : optimal for this architecture

 *********************** Exchange-Correlation Parameters ***********************

 using functional                               : Perdew Burke Ernzerhof
 relativistic treatment                         : Koelling-Harmon
 DFT+D: Semi-empirical dispersion correction    : off

 ************************* Pseudopotential Parameters **************************

 pseudopotential representation                 : reciprocal space
 <beta|phi> representation                      : reciprocal space
 spin-orbit coupling                            : off

 **************************** Basis Set Parameters *****************************

 plane wave basis set cut-off                   :   500.0000   eV
 size of standard grid                          :     1.7500
 size of   fine   gmax                          :    20.0476   1/A
 finite basis set correction                    : none

 **************************** Electronic Parameters ****************************

 number of  electrons                           :  341.0
 net charge of system                           :  0.000
 net spin   of system                           :  1.000
 number of  up  spins                           :  171.0
 number of down spins                           :  170.0
 treating system as spin-polarized
 number of bands                                :        205

 ********************* Electronic Minimization Parameters **********************

 Method: Treating system as metallic with density mixing treatment of electrons,
         and number of  SD  steps               :          1
         and number of  CG  steps               :          4

 total energy / atom convergence tol.           : 0.1000E-04   eV
 eigen-energy convergence tolerance             : 0.1000E-05   eV
 max force / atom convergence tol.              : ignored
 convergence tolerance window                   :          3   cycles
 max. number of SCF cycles                      :        100
 number of fixed-spin iterations                :         10
 smearing scheme                                : Gaussian
 smearing width                                 : 0.2000       eV
 Fermi energy convergence tolerance             : 0.2721E-13   eV
 periodic dipole correction                     : NONE

 ************************** Density Mixing Parameters **************************

 density-mixing scheme                          : Broyden
 max. length of mixing history                  :         20
 charge density mixing amplitude                : 0.8000
   spin density mixing amplitude                :  2.000
 cut-off energy for mixing                      :  500.0       eV

 *********************** Population Analysis Parameters ************************

 Population analysis with cutoff                :  3.000       A
 Population analysis output                     : summary and pdos components

 ********************** Geometry Optimization Parameters ***********************

 optimization method                            : LBFGS
 max. no. of LBFGS updates                      : unbounded
 variable cell method                           : fixed basis quality
 max. number of steps                           :         30
 estimated bulk modulus                         :  500.0       GPa
 estimated <frequency>                          :  1668.       cm-1
 geom line minimiser                            : on
 with line minimiser tolerance                  :     0.4000
  with spin fully able to relax for all steps
 total energy convergence tolerance             : 0.2000E-04   eV/atom
        max ionic |force| tolerance             : 0.5000E-01   eV/A
 max ionic |displacement| tolerance             : 0.1000E-02   A
   max |stress component| tolerance             : 0.1000       GPa
 convergence tolerance window                   :          2   steps
 backup results every                           :          5   steps
 write geom trajectory file                     : on

                                      Unit Cell
        Real Lattice(A)                      Reciprocal Lattice(1/A)
     7.2533593     0.0000000     0.0000000        0.866244868   0.000000000   0.000000000
     0.0000000     7.2533593     0.0000000        0.000000000   0.866244868   0.000000000
     0.0000000     0.0000000     7.2533593        0.000000000   0.000000000   0.866244868

                       Lattice parameters(A)       Cell Angles
                    a =      7.253359          alpha =   90.000000
                    b =      7.253359          beta  =   90.000000
                    c =      7.253359          gamma =   90.000000

                       Current cell volume =           381.608097       A**3
                                   density =             5.162170   AMU/A**3
                                           =             8.571985     g/cm^3

                                     Cell Contents
                         Total number of ions in cell =   31
                      Total number of species in cell =    1
                        Max number of any one species =   31

            x  Element    Atom        Fractional coordinates of atoms  x
            x            Number           u          v          w      x
            x  Cu           1         0.000000   0.000000   0.000000   x
            x  Cu           2         1.000000   0.250294   0.250294   x
            x  Cu           3         0.250294   1.000000   0.250294   x
            x  Cu           4         0.250294   0.250294   0.000000   x
            x  Cu           5         0.000000   0.000000   0.500000   x
            x  Cu           6         1.000000   0.250294   0.749706   x
            x  Cu           7         0.250294   0.000000   0.749706   x
            x  Cu           8         0.251518   0.251518   0.500000   x
            x  Cu           9         1.000000   0.500000   0.000000   x
            x  Cu          10         1.000000   0.749706   0.250294   x
            x  Cu          11         0.251518   0.500000   0.251518   x
            x  Cu          12         0.250294   0.749706   0.000000   x
            x  Cu          13         1.000000   0.500000   0.500000   x
            x  Cu          14         1.000000   0.749706   0.749706   x
            x  Cu          15         0.251518   0.500000   0.748482   x
            x  Cu          16         0.251518   0.748482   0.500000   x
            x  Cu          17         0.500000   0.000000   1.000000   x
            x  Cu          18         0.500000   0.251518   0.251518   x
            x  Cu          19         0.749706   0.000000   0.250294   x
[...]
     Cu    23      Dzx                  0.966     0.966    -0.000
     Cu    23      Dxx-yy               0.978     0.978    -0.000
     Cu    23      Dxy                  0.966     0.966    -0.000
     Cu    23      S                    0.397     0.397     0.000
     Cu    23      Px                   0.080     0.080    -0.000
     Cu    23      Py                   0.079     0.079     0.000
     Cu    23      Pz                   0.080     0.080     0.000
     Cu    24      Dzz                  0.980     0.980    -0.000
     Cu    24      Dzy                  0.964     0.964    -0.000
     Cu    24      Dzx                  0.964     0.964    -0.000
     Cu    24      Dxx-yy               0.976     0.976    -0.000
     Cu    24      Dxy                  0.973     0.973    -0.000
     Cu    24      S                    0.407     0.407     0.000
     Cu    24      Px                   0.077     0.077    -0.000
     Cu    24      Py                   0.077     0.077    -0.000
     Cu    24      Pz                   0.093     0.093     0.000
     Cu    25      Dzz                  0.975     0.975    -0.000
     Cu    25      Dzy                  0.966     0.966    -0.000
     Cu    25      Dzx                  0.966     0.966     0.000
     Cu    25      Dxx-yy               0.979     0.979     0.000
     Cu    25      Dxy                  0.966     0.966     0.000
     Cu    25      S                    0.413     0.413     0.000
     Cu    25      Px                   0.076     0.076    -0.000
     Cu    25      Py                   0.076     0.076    -0.000
     Cu    25      Pz                   0.131     0.131     0.000
     Cu    26      Dzz                  0.977     0.977    -0.000
     Cu    26      Dzy                  0.973     0.973    -0.000
     Cu    26      Dzx                  0.964     0.964    -0.000
     Cu    26      Dxx-yy               0.979     0.979    -0.000
     Cu    26      Dxy                  0.964     0.964    -0.000
     Cu    26      S                    0.407     0.407     0.000
     Cu    26      Px                   0.093     0.093    -0.000
     Cu    26      Py                   0.077     0.077     0.000
     Cu    26      Pz                   0.077     0.077     0.000
     Cu    27      Dzz                  0.977     0.977     0.000
     Cu    27      Dzy                  0.964     0.964    -0.000
     Cu    27      Dzx                  0.973     0.973     0.000
     Cu    27      Dxx-yy               0.979     0.979     0.000
     Cu    27      Dxy                  0.964     0.964    -0.000
     Cu    27      S                    0.407     0.407     0.000
     Cu    27      Px                   0.077     0.077     0.000
     Cu    27      Py                   0.093     0.093     0.000
     Cu    27      Pz                   0.077     0.077     0.000
     Cu    28      Dzz                  0.978     0.978    -0.000
     Cu    28      Dzy                  0.966     0.966    -0.000
     Cu    28      Dzx                  0.966     0.966     0.000
     Cu    28      Dxx-yy               0.978     0.978    -0.000
     Cu    28      Dxy                  0.966     0.966     0.000
     Cu    28      S                    0.397     0.397     0.000
     Cu    28      Px                   0.080     0.080    -0.000
     Cu    28      Py                   0.080     0.080     0.000
     Cu    28      Pz                   0.079     0.079     0.000
     Cu    29      Dzz                  0.977     0.977    -0.000
     Cu    29      Dzy                  0.973     0.973     0.000
     Cu    29      Dzx                  0.964     0.964    -0.000
     Cu    29      Dxx-yy               0.979     0.979    -0.000
     Cu    29      Dxy                  0.964     0.964    -0.000
     Cu    29      S                    0.407     0.407     0.000
     Cu    29      Px                   0.093     0.093     0.000
     Cu    29      Py                   0.077     0.077     0.000
     Cu    29      Pz                   0.077     0.077     0.000
     Cu    30      Dzz                  0.977     0.977    -0.000
     Cu    30      Dzy                  0.964     0.964    -0.000
     Cu    30      Dzx                  0.973     0.973    -0.000
     Cu    30      Dxx-yy               0.979     0.979     0.000
     Cu    30      Dxy                  0.964     0.964    -0.000
     Cu    30      S                    0.407     0.407     0.000
     Cu    30      Px                   0.077     0.077    -0.000
     Cu    30      Py                   0.093     0.093     0.000
     Cu    30      Pz                   0.077     0.077    -0.000
     Cu    31      Dzz                  0.980     0.980    -0.000
     Cu    31      Dzy                  0.964     0.964    -0.000
     Cu    31      Dzx                  0.964     0.964    -0.000
     Cu    31      Dxx-yy               0.976     0.976    -0.000
     Cu    31      Dxy                  0.973     0.973     0.000
     Cu    31      S                    0.407     0.407    -0.000
     Cu    31      Px                   0.077     0.077     0.000
     Cu    31      Py                   0.077     0.077     0.000
     Cu    31      Pz                   0.093     0.093     0.000
                           Total:     170.500   170.500     0.000

     Atomic Populations (Mulliken)
Species          Ion Spin      s       p       d       f      Total   Charge(e)   Spin(hbar/2)
  Cu              1   up:     0.393   0.242   4.853   0.000   5.489     0.022        0.000
                  1   dn:     0.393   0.242   4.853   0.000   5.489
  Cu              2   up:     0.397   0.238   4.853   0.000   5.487     0.025        0.000
                  2   dn:     0.397   0.238   4.853   0.000   5.487
  Cu              3   up:     0.397   0.238   4.853   0.000   5.487     0.025        0.000
                  3   dn:     0.397   0.238   4.853   0.000   5.487
  Cu              4   up:     0.397   0.238   4.853   0.000   5.487     0.025       -0.000
                  4   dn:     0.397   0.238   4.853   0.000   5.487
  Cu              5   up:     0.393   0.212   4.857   0.000   5.462     0.076        0.000
                  5   dn:     0.393   0.212   4.857   0.000   5.462
  Cu              6   up:     0.397   0.238   4.853   0.000   5.487     0.025        0.000
                  6   dn:     0.397   0.238   4.853   0.000   5.487
  Cu              7   up:     0.397   0.238   4.853   0.000   5.487     0.025       -0.000
                  7   dn:     0.397   0.238   4.853   0.000   5.487
  Cu              8   up:     0.407   0.246   4.857   0.000   5.511    -0.022        0.000
                  8   dn:     0.407   0.246   4.857   0.000   5.511
  Cu              9   up:     0.393   0.212   4.857   0.000   5.462     0.076       -0.000
                  9   dn:     0.393   0.212   4.857   0.000   5.462
  Cu             10   up:     0.397   0.238   4.853   0.000   5.487     0.025        0.000
                 10   dn:     0.397   0.238   4.853   0.000   5.487
  Cu             11   up:     0.407   0.246   4.857   0.000   5.511    -0.022        0.000
                 11   dn:     0.407   0.246   4.857   0.000   5.511
  Cu             12   up:     0.397   0.238   4.853   0.000   5.487     0.026       -0.000
                 12   dn:     0.397   0.238   4.853   0.000   5.487
  Cu             13   up:     0.413   0.283   4.852   0.000   5.549    -0.098       -0.000
                 13   dn:     0.413   0.283   4.852   0.000   5.549
  Cu             14   up:     0.397   0.238   4.853   0.000   5.487     0.025       -0.000
                 14   dn:     0.397   0.238   4.853   0.000   5.487
  Cu             15   up:     0.407   0.246   4.857   0.000   5.511    -0.022        0.000
                 15   dn:     0.407   0.246   4.857   0.000   5.511
  Cu             16   up:     0.407   0.246   4.857   0.000   5.511    -0.022        0.000
                 16   dn:     0.407   0.246   4.857   0.000   5.511
  Cu             17   up:     0.393   0.212   4.857   0.000   5.462     0.076       -0.000
                 17   dn:     0.393   0.212   4.857   0.000   5.462
  Cu             18   up:     0.407   0.246   4.857   0.000   5.511    -0.022       -0.000
                 18   dn:     0.407   0.246   4.857   0.000   5.511
  Cu             19   up:     0.397   0.238   4.853   0.000   5.487     0.025        0.000
                 19   dn:     0.397   0.238   4.853   0.000   5.487
  Cu             20   up:     0.397   0.238   4.853   0.000   5.487     0.026        0.000
                 20   dn:     0.397   0.238   4.853   0.000   5.487
  Cu             21   up:     0.413   0.283   4.852   0.000   5.549    -0.098        0.000
                 21   dn:     0.413   0.283   4.852   0.000   5.549
  Cu             22   up:     0.407   0.246   4.857   0.000   5.511    -0.022       -0.000
                 22   dn:     0.407   0.246   4.857   0.000   5.511
  Cu             23   up:     0.397   0.238   4.853   0.000   5.487     0.025       -0.000
                 23   dn:     0.397   0.238   4.853   0.000   5.487
  Cu             24   up:     0.407   0.246   4.857   0.000   5.511    -0.022       -0.000
                 24   dn:     0.407   0.246   4.857   0.000   5.511
  Cu             25   up:     0.413   0.283   4.852   0.000   5.549    -0.098        0.000
                 25   dn:     0.413   0.283   4.852   0.000   5.549
  Cu             26   up:     0.407   0.246   4.857   0.000   5.511    -0.022        0.000
                 26   dn:     0.407   0.246   4.857   0.000   5.511
  Cu             27   up:     0.407   0.246   4.857   0.000   5.511    -0.022        0.000
                 27   dn:     0.407   0.246   4.857   0.000   5.511
  Cu             28   up:     0.397   0.238   4.853   0.000   5.487     0.026       -0.000
                 28   dn:     0.397   0.238   4.853   0.000   5.487
  Cu             29   up:     0.407   0.246   4.857   0.000   5.511    -0.022        0.000
                 29   dn:     0.407   0.246   4.857   0.000   5.511
  Cu             30   up:     0.407   0.246   4.857   0.000   5.511    -0.022       -0.000
                 30   dn:     0.407   0.246   4.857   0.000   5.511
  Cu             31   up:     0.407   0.246   4.857   0.000   5.511    -0.022       -0.000
                 31   dn:     0.407   0.246   4.857   0.000   5.511

                 Bond                   Population        Spin       Length (A)
             Cu 16 -- Cu 26                  0.31         0.00          2.53450
             Cu 11 -- Cu 26                  0.31        -0.00          2.53450
             Cu 11 -- Cu 16                  0.31         0.00          2.53451
             Cu 15 -- Cu 29                  0.31         0.00          2.53451
             Cu 16 -- Cu 29                  0.31         0.00          2.53451
             Cu 15 -- Cu 16                  0.31         0.00          2.53451
             Cu 22 -- Cu 30                  0.31         0.00          2.53451
             Cu 22 -- Cu 24                  0.31         0.00          2.53453
             Cu 18 -- Cu 27                  0.31         0.00          2.53453
             Cu 8  -- Cu 15                  0.31         0.00          2.53453
             Cu 26 -- Cu 31                  0.31         0.00          2.53453
             Cu 18 -- Cu 24                  0.31         0.00          2.53454
             Cu 24 -- Cu 30                  0.31         0.00          2.53454
             Cu 29 -- Cu 31                  0.31        -0.00          2.53454
             Cu 8  -- Cu 11                  0.31         0.00          2.53454
             Cu 8  -- Cu 22                  0.31         0.00          2.53454
             Cu 8  -- Cu 18                  0.31         0.00          2.53455
             Cu 24 -- Cu 27                  0.31         0.00          2.53455
             Cu 15 -- Cu 22                  0.31         0.00          2.53456
             Cu 26 -- Cu 27                  0.31         0.00          2.53456
             Cu 27 -- Cu 31                  0.31        -0.00          2.53456
             Cu 11 -- Cu 18                  0.31         0.00          2.53456
             Cu 29 -- Cu 30                  0.31        -0.00          2.53456
             Cu 30 -- Cu 31                  0.31        -0.00          2.53457
             Cu 20 -- Cu 25                  0.26        -0.00          2.55608
             Cu 10 -- Cu 13                  0.26         0.00          2.55608
             Cu 4  -- Cu 25                  0.26        -0.00          2.55608
             Cu 13 -- Cu 14                  0.26        -0.00          2.55608
             Cu 3  -- Cu 21                  0.26         0.00          2.55609
             Cu 7  -- Cu 21                  0.26        -0.00          2.55609
             Cu 25 -- Cu 28                  0.26        -0.00          2.55611
             Cu 12 -- Cu 25                  0.26         0.00          2.55611
             Cu 19 -- Cu 21                  0.26        -0.00          2.55614
             Cu 6  -- Cu 13                  0.26        -0.00          2.55614
             Cu 2  -- Cu 13                  0.26         0.00          2.55614
             Cu 21 -- Cu 23                  0.26        -0.00          2.55614
             Cu 17 -- Cu 19                  0.27         0.00          2.56438
             Cu 6  -- Cu 9                   0.27        -0.00          2.56438
             Cu 2  -- Cu 9                   0.27        -0.00          2.56439
             Cu 17 -- Cu 23                  0.27         0.00          2.56439
             Cu 9  -- Cu 14                  0.27        -0.00          2.56441
             Cu 9  -- Cu 10                  0.27        -0.00          2.56442
             Cu 3  -- Cu 17                  0.27         0.00          2.56442
             Cu 7  -- Cu 17                  0.27         0.00          2.56443
             Cu 17 -- Cu 20                  0.27         0.00          2.56444
             Cu 9  -- Cu 20                  0.27         0.00          2.56445
             Cu 9  -- Cu 28                  0.27        -0.00          2.56445
             Cu 4  -- Cu 9                   0.27        -0.00          2.56446
             Cu 9  -- Cu 12                  0.27        -0.00          2.56446
             Cu 4  -- Cu 17                  0.27         0.00          2.56447
             Cu 17 -- Cu 28                  0.27         0.00          2.56448
             Cu 3  -- Cu 5                   0.27         0.00          2.56450
             Cu 5  -- Cu 10                  0.27         0.00          2.56450
             Cu 12 -- Cu 17                  0.27         0.00          2.56450
             Cu 5  -- Cu 7                   0.27         0.00          2.56450
             Cu 5  -- Cu 14                  0.27         0.00          2.56450
             Cu 5  -- Cu 19                  0.27        -0.00          2.56454
             Cu 5  -- Cu 23                  0.27         0.00          2.56454
             Cu 2  -- Cu 5                   0.27         0.00          2.56455
             Cu 5  -- Cu 6                   0.27        -0.00          2.56455
[...]
             Cu 6  -- Cu 8                   0.24         0.00          2.57542
             Cu 23 -- Cu 31                  0.24        -0.00          2.57542
             Cu 2  -- Cu 8                   0.24         0.00          2.57543
             Cu 9  -- Cu 27                  0.24         0.00          2.59432
             Cu 17 -- Cu 18                  0.24         0.00          2.59432
             Cu 9  -- Cu 30                  0.24         0.00          2.59432
             Cu 17 -- Cu 22                  0.24        -0.00          2.59434
             Cu 9  -- Cu 11                  0.24         0.00          2.59436
             Cu 9  -- Cu 15                  0.24        -0.00          2.59436
             Cu 5  -- Cu 16                  0.24         0.00          2.59437
             Cu 17 -- Cu 26                  0.24         0.00          2.59438
             Cu 17 -- Cu 29                  0.24         0.00          2.59438
             Cu 5  -- Cu 31                  0.24         0.00          2.59439
             Cu 5  -- Cu 8                   0.24        -0.00          2.59441
             Cu 5  -- Cu 24                  0.24         0.00          2.59443

Writing analysis data to initial.castep_bin

Writing model to initial.check
Initialisation time =      8.12 s
Calculation time    =   1620.72 s
Finalisation time   =      6.93 s
Total time          =   1635.76 s

Overall parallel efficiency rating: Excellent (93%)

Data was distributed by:-
k-point (16-way); efficiency rating: Excellent (94%)