 Compiled for linux_x86_64_ifort on Thu, 05 Aug 2021 16:13:05 +0100
 from code version
 f12f38a+  new-neb-implementation  Thu Aug 5 15:34:27 2021 +0100
 Compiler: Intel Fortran 18.0.3.222; Optimisation: fast
 MATHLIBS: Intel MKL(2018.0.3) (LAPACK version 3.7.0)
 FFT Lib : default
 Fundamental constants values: CODATA 2014

 Run started: Mon, 09 Aug 2021 17:30:46 +0100

 Atomic calculation performed for Al: 1s2 2s2 2p6 3s2 3p1

 Converged in 54 iterations to an ae energy of -6603.783 eV

   | Pseudopotential Report - Date of generation  9-08-2021   |
   | Element: Al Ionic charge:  3.00 Level of theory: PBE     |
   | Atomic Solver: Koelling-Harmon                           |
   |               Reference Electronic Structure             |
   |         Orbital         Occupation         Energy        |
   |            3s              2.000           -0.285        |
   |            3p              1.000           -0.100        |
   |                 Pseudopotential Definition               |
   |        Beta     l      e      Rc     scheme   norm       |
   |          1      0   -0.285   2.192     qc      0         |
   |          2      0    0.250   2.192     qc      0         |
   |          3      1   -0.100   2.192     qc      0         |
   |          4      1    0.250   2.192     qc      0         |
   |          5      2    0.000   2.000     qc      0         |
   |          6      2    0.250   2.000     qc      0         |
   |         loc     3    0.000   2.192     pn      0         |
   | Augmentation charge Rinner = 1.398                       |
   | Partial core correction Rc = 1.398                       |
   | "3|2.2|2.2|1.4|4|5|5|30:31:32U2U2"                       |
   |      Author: Chris J. Pickard, Cambridge University      |

 Atomic calculation performed for Au:

 Converged in 94 iterations to an ae energy of -517336.889 eV

   | Pseudopotential Report - Date of generation  9-08-2021   |
   | Element: Au Ionic charge: 33.00 Level of theory: PBE     |
   | Atomic Solver: Koelling-Harmon                           |
   |               Reference Electronic Structure             |
   |         Orbital         Occupation         Energy        |
   |            5s              2.000           -3.982        |
   |            4f             14.000           -2.981        |
   |            5p              6.000           -2.197        |
   |            5d             10.000           -0.253        |
   |            6s              1.000           -0.212        |
   |                 Pseudopotential Definition               |
   |        Beta     l      e      Rc     scheme   norm       |
   |          1      0   -3.982   2.392     qc      0         |
   |          2      0   -0.212   2.392     qc      0         |
   |          3      0    0.250   2.392     qc      0         |
   |          4      1   -2.197   2.392     qc      0         |
   |          5      1    0.250   2.392     qc      0         |
   |          6      2   -0.253   2.392     qc      0         |
   |          7      2    0.250   2.392     qc      0         |
   |          8      3   -2.981   2.392     qc      0         |
   |          9      3    0.250   2.392     qc      0         |
   |         loc     3    0.000   2.392     pn      0         |
   | Augmentation charge Rinner = 1.686                       |
   | Partial core correction Rc = 1.686                       |
   | "3|2.4|9|10|11|50U:60:51:52:43(qc=6)"                    |
   |      Author: Chris J. Pickard, Cambridge University      |

 Pseudo atomic calculation performed for Al 3s2 3p1

 Converged in 14 iterations to a total energy of -107.1295 eV

 Pseudo atomic calculation performed for Au 4f14 5s2 5p6 5d10 6s1

 Converged in 24 iterations to a total energy of -14121.4572 eV
 Calculation parallelised over 12 processes.
 Data is distributed by G-vector(6-way) and k-point(2-way)

 ************************************ Title ************************************

 ***************************** General Parameters ******************************

 output verbosity                               : normal  (1)
 write checkpoint data to                       : AlAu_cut_300.0_kpn_2x2x1.check
 type of calculation                            : single point energy
 stress calculation                             : on
 density difference calculation                 : off
 electron localisation func (ELF) calculation   : off
 Hirshfeld analysis                             : off
 polarisation (Berry phase) analysis            : off
 molecular orbital projected DOS                : off
 deltaSCF calculation                           : off
 unlimited duration calculation
 timing information                             : on
 write extra output files                       : on
 write final potential to formatted file        : off
 write final density to formatted file          : off
 write BibTeX reference list                    : on
 write OTFG pseudopotential files               : on
 write electrostatic potential file             : on
 write bands file                               : on
 checkpoint writing                             : write castep_bin only

 output         length unit                     : A
 output           mass unit                     : amu
 output           time unit                     : ps
 output         charge unit                     : e
 output           spin unit                     : hbar/2
 output         energy unit                     : eV
 output          force unit                     : eV/A
 output       velocity unit                     : A/ps
 output       pressure unit                     : GPa
 output     inv_length unit                     : 1/A
 output      frequency unit                     : cm-1
 output force constant unit                     : eV/A**2
 output         volume unit                     : A**3
 output   IR intensity unit                     : (D/A)**2/amu
 output         dipole unit                     : D
 output         efield unit                     : eV/A/e
 output        entropy unit                     : J/mol/K
 output    efield chi2 unit                     : pm/V

 wavefunctions paging                           : none
 random number generator seed                   : randomised (173046515)
 data distribution                              : optimal for this architecture

 *********************** Exchange-Correlation Parameters ***********************

 using functional                               : Perdew Burke Ernzerhof
 relativistic treatment                         : Koelling-Harmon
 DFT+D: Semi-empirical dispersion correction    : off

 ************************* Pseudopotential Parameters **************************

 pseudopotential representation                 : reciprocal space
 <beta|phi> representation                      : reciprocal space
 spin-orbit coupling                            : off

 **************************** Basis Set Parameters *****************************

 plane wave basis set cut-off                   :   300.0000   eV
 size of standard grid                          :     1.7500
 size of   fine   gmax                          :    15.5288   1/A
 finite basis set correction                    : automatic
 number of sample energies                      :          3
           sample  spacing                      :     5.0000   eV

 **************************** Electronic Parameters ****************************

 number of  electrons                           :  69.00
 net charge of system                           :  0.000
 net spin   of system                           :  1.000
 number of  up  spins                           :  35.00
 number of down spins                           :  34.00
 treating system as spin-polarized
 number of bands                                :         42

 ********************* Electronic Minimization Parameters **********************

 Method: Treating system as metallic with density mixing treatment of electrons,
         and number of  SD  steps               :          1
         and number of  CG  steps               :          4

 total energy / atom convergence tol.           : 0.1000E-04   eV
 eigen-energy convergence tolerance             : 0.1000E-05   eV
 max force / atom convergence tol.              : ignored
 convergence tolerance window                   :          3   cycles
 max. number of SCF cycles                      :        100
 number of fixed-spin iterations                :         10
 smearing scheme                                : Gaussian
 smearing width                                 : 0.2000       eV
 Fermi energy convergence tolerance             : 0.2721E-13   eV
 periodic dipole correction                     : NONE

 ************************** Density Mixing Parameters **************************

 density-mixing scheme                          : Broyden
 max. length of mixing history                  :         20
 charge density mixing amplitude                : 0.8000
   spin density mixing amplitude                :  2.000
 cut-off energy for mixing                      :  300.0       eV

 *********************** Population Analysis Parameters ************************

 Population analysis with cutoff                :  3.000       A
 Population analysis output                     : summary and pdos components

                                      Unit Cell
        Real Lattice(A)                      Reciprocal Lattice(1/A)
     5.7275650     0.0000000     0.0000000        1.097008119   0.000000000   0.000000000
     0.0000000     5.7275650     0.0000000        0.000000000   1.097008119   0.000000000
     0.0000000     0.0000000    13.7500000        0.000000000   0.000000000   0.456958931

                       Lattice parameters(A)       Cell Angles
                    a =      5.727565          alpha =   90.000000
                    b =      5.727565          beta  =   90.000000
                    c =     13.750000          gamma =   90.000000

                       Current cell volume =           451.068761       A**3
                                   density =             1.154469   AMU/A**3
                                           =             1.917041     g/cm^3

                                     Cell Contents
                         Total number of ions in cell =   13
                      Total number of species in cell =    2
                        Max number of any one species =   12

            x  Element    Atom        Fractional coordinates of atoms  x
            x            Number           u          v          w      x
            x  Al           1         0.004336  -0.001207   0.293264   x
            x  Al           2         0.513295  -0.002044   0.290058   x
            x  Al           3         0.013786   0.506699   0.289202   x
            x  Al           4         0.504736   0.495954   0.289216   x
            x  Al           5         0.252112   0.233298   0.431909   x
            x  Al           6         0.745092   0.241158   0.439325   x
            x  Al           7         0.242073   0.737671   0.443511   x
[...]
                                    Al   26.9815400
                                    Au  196.9665500

                          Electric Quadrupole Moment (Barn)
                                    Al    0.1466000 Isotope 27
                                    Au    0.5470000 Isotope197

                          Files used for pseudopotentials:
                                    Al 3|2.2|2.2|1.4|4|5|5|30:31:32U2U2
                                    Au 3|2.4|9|10|11|50U:60:51:52:43(qc=6)

                              k-Points For BZ Sampling
                       MP grid size for SCF calculation is  2  2  1
                            with an offset of   0.000  0.000  0.000
                       Number of kpoints used =             2

                               Symmetry and Constraints

                      Maximum deviation from symmetry =  0.00000         ANG

                      Number of symmetry operations   =           1
                      Number of ionic constraints     =           3
                      Point group of crystal =     1: C1, 1, 1
                      Space group of crystal =     1: P1, P 1

             Set iprint > 1 for details on symmetry rotations/translations

                         Centre of mass is constrained
             Set iprint > 1 for details of linear ionic constraints

                         Number of cell constraints= 0
                         Cell constraints are:  1 2 3 4 5 6

                         External pressure/stress (GPa)
                          0.00000   0.00000   0.00000
                                    0.00000   0.00000
                                              0.00000

Integrated Spin Density     =    0.312764E-03 hbar/2
Integrated |Spin Density|   =    0.154915E-02 hbar/2

Final energy, E             =  -15455.83241567     eV
Final free energy (E-TS)    =  -15455.98923530     eV
(energies not corrected for finite basis set)

NB est. 0K energy (E-0.5TS)      =  -15455.91082548     eV

Calculating total energy with cut-off of  295.000 eV.
------------------------------------------------------------------------ <-- SCF
SCF loop      Energy           Fermi           Energy gain       Timer   <-- SCF
                               energy          per atom          (sec)   <-- SCF
------------------------------------------------------------------------ <-- SCF
Initial  -1.54558324E+004  0.00000000E+000                        43.22  <-- SCF
      1  -1.54560403E+004  4.44077938E-001   1.59898386E-002      43.61  <-- SCF
      2  -1.54560403E+004  4.44077965E-001   3.85672842E-007      43.98  <-- SCF
      3  -1.54560403E+004  4.44770062E-001  -1.43109321E-007      44.39  <-- SCF
      4  -1.54560403E+004  4.44586828E-001  -7.68031273E-007      44.78  <-- SCF
------------------------------------------------------------------------ <-- SCF

[...]

Calculating total energy with cut-off of  300.000 eV.
------------------------------------------------------------------------ <-- SCF
SCF loop      Energy           Fermi           Energy gain       Timer   <-- SCF
                               energy          per atom          (sec)   <-- SCF
------------------------------------------------------------------------ <-- SCF
Initial  -1.54558834E+004  0.00000000E+000                        45.20  <-- SCF
      1  -1.54560777E+004  4.42647927E-001   1.49465338E-002      45.59  <-- SCF
      2  -1.54560778E+004  4.42647901E-001   5.79632231E-007      45.96  <-- SCF
      3  -1.54560777E+004  4.44111721E-001  -5.02634398E-006      46.39  <-- SCF
      4  -1.54560777E+004  4.43995128E-001  -1.28288830E-006      46.77  <-- SCF
------------------------------------------------------------------------ <-- SCF

Integrated Spin Density     =    0.820904E-05 hbar/2
Integrated |Spin Density|   =    0.926958E-04 hbar/2

Final energy, E             =  -15455.92088484     eV
Final free energy (E-TS)    =  -15456.07766844     eV
(energies not corrected for finite basis set)

NB est. 0K energy (E-0.5TS)      =  -15455.99927664     eV

 For future reference: finite basis dEtot/dlog(Ecut) =      -2.759749eV
 Total energy corrected for finite basis set =  -15456.079459 eV

 ************************** Forces **************************
 *               Cartesian components (eV/A)                *
 *                         x            y            z      *
 * Al              1     -0.03985     -0.17648      0.15149 *
 * Al              2     -0.03947     -0.36891      0.23702 *
 * Al              3     -0.40829      0.03182      0.42236 *
 * Al              4      0.35658      0.29792      0.42699 *
 * Al              5     -0.03545      0.28551      0.37600 *
 * Al              6      0.15814      0.42413     -0.10495 *
 * Al              7      0.18568      0.11592     -0.52062 *
 * Al              8     -0.05104     -0.31232      0.30059 *
 * Al              9     -0.08749      0.02705     -0.06263 *
 * Al             10      0.04236     -0.11087     -0.17760 *
 * Al             11     -0.27774     -0.31346     -0.12218 *
 * Al             12      0.28372     -0.13598     -0.06096 *
 * Au              1     -0.08714      0.23565     -0.86551 *

 ***************** Stress Tensor *****************
 *          Cartesian components (GPa)           *
 *             x             y             z     *
 *  x      0.314921     -0.007670      0.012709  *
 *  y     -0.007670      0.176342     -0.083051  *
 *  z      0.012709     -0.083051      2.325418  *
 *  Pressure:   -0.9389                          *

 Pseudo atomic calculation performed for Al 3s2 3p1

 Converged in 14 iterations to a total energy of -107.1295 eV

 Pseudo atomic calculation performed for Au 4f14 5s2 5p6 5d10 6s1

 Converged in 24 iterations to a total energy of -14121.4572 eV
Charge spilling parameter for spin component 1 = 1.15%
Charge spilling parameter for spin component 2 = 1.15%

                   Orbital Populations
     Ion    Atom   Orbital              Up        Down      Spin
     Al     1      S                    0.678     0.678    -0.000
     Al     1      Px                   0.292     0.292     0.000
     Al     1      Py                   0.292     0.292    -0.000
     Al     1      Pz                   0.224     0.223     0.000
     Al     2      S                    0.685     0.685     0.000
     Al     2      Px                   0.284     0.285    -0.000
     Al     2      Py                   0.287     0.287    -0.000
     Al     2      Pz                   0.222     0.222     0.000
     Al     3      S                    0.686     0.686     0.000
     Al     3      Px                   0.289     0.289     0.000
     Al     3      Py                   0.283     0.283    -0.000
     Al     3      Pz                   0.223     0.223     0.000
     Al     4      S                    0.685     0.686    -0.000
     Al     4      Px                   0.289     0.289    -0.000
     Al     4      Py                   0.286     0.286    -0.000
     Al     4      Pz                   0.220     0.220    -0.000
     Al     5      S                    0.581     0.581    -0.000
     Al     5      Px                   0.327     0.327    -0.000
     Al     5      Py                   0.322     0.322     0.000
     Al     5      Pz                   0.301     0.301    -0.000
     Al     6      S                    0.582     0.582     0.000
     Al     6      Px                   0.319     0.319    -0.000
     Al     6      Py                   0.325     0.325    -0.000
     Al     6      Pz                   0.311     0.311     0.000
     Al     7      S                    0.577     0.577     0.000
     Al     7      Px                   0.325     0.325    -0.000
     Al     7      Py                   0.320     0.320     0.000
     Al     7      Pz                   0.315     0.315     0.000
     Al     8      S                    0.575     0.575     0.000
     Al     8      Px                   0.322     0.322     0.000
     Al     8      Py                   0.324     0.325    -0.000
     Al     8      Pz                   0.290     0.290     0.000
     Al     9      S                    0.646     0.646    -0.000
     Al     9      Px                   0.303     0.303     0.000
     Al     9      Py                   0.304     0.304    -0.000
     Al     9      Pz                   0.271     0.271     0.000
     Al    10      S                    0.652     0.652     0.000
     Al    10      Px                   0.296     0.296     0.000
     Al    10      Py                   0.297     0.297     0.000
     Al    10      Pz                   0.267     0.268    -0.000
     Al    11      S                    0.660     0.660     0.000
     Al    11      Px                   0.292     0.291     0.000
     Al    11      Py                   0.295     0.295    -0.000
     Al    11      Pz                   0.257     0.257     0.000
     Al    12      S                    0.651     0.651     0.000
     Al    12      Px                   0.300     0.300     0.000
     Al    12      Py                   0.304     0.304    -0.000
     Al    12      Pz                   0.270     0.270     0.000
     Au     1      S                    1.000     1.000    -0.000
     Au     1      Fxxx                 1.000     1.000     0.000
     Au     1      Fyyy                 1.000     1.000     0.000
     Au     1      Fzzz                 1.000     1.000    -0.000
     Au     1      Fxyz                 1.000     1.000     0.000
     Au     1      Fz(xx-yy)            1.000     1.000    -0.000
     Au     1      Fy(zz-xx)            1.000     1.000    -0.000
     Au     1      Fx(yy-zz)            1.000     1.000    -0.000
     Au     1      Px                   1.000     1.000    -0.000
     Au     1      Py                   1.000     1.000    -0.000
     Au     1      Pz                   1.000     1.000     0.000
     Au     1      Dzz                  0.988     0.988     0.000
     Au     1      Dzy                  0.966     0.966    -0.000
     Au     1      Dzx                  0.965     0.965     0.000
     Au     1      Dxx-yy               0.983     0.983     0.000
     Au     1      Dxy                  0.952     0.952    -0.000
     Au     1      S                    0.536     0.536     0.000
                           Total:      34.500    34.500    -0.000

     Atomic Populations (Mulliken)
Species          Ion Spin      s       p       d       f      Total   Charge(e)   Spin(hbar/2)
  Al              1   up:     0.678   0.807   0.000   0.000   1.485     0.030       -0.000
                  1   dn:     0.678   0.807   0.000   0.000   1.485
  Al              2   up:     0.685   0.794   0.000   0.000   1.480     0.041        0.000
                  2   dn:     0.685   0.794   0.000   0.000   1.480
  Al              3   up:     0.686   0.795   0.000   0.000   1.481     0.038        0.000
                  3   dn:     0.686   0.795   0.000   0.000   1.481
  Al              4   up:     0.685   0.795   0.000   0.000   1.481     0.039       -0.000
                  4   dn:     0.686   0.795   0.000   0.000   1.481
  Al              5   up:     0.581   0.950   0.000   0.000   1.531    -0.063       -0.000
                  5   dn:     0.581   0.951   0.000   0.000   1.532
  Al              6   up:     0.582   0.956   0.000   0.000   1.538    -0.075        0.000
                  6   dn:     0.582   0.956   0.000   0.000   1.537
  Al              7   up:     0.577   0.959   0.000   0.000   1.536    -0.073        0.000
                  7   dn:     0.577   0.959   0.000   0.000   1.536
  Al              8   up:     0.575   0.937   0.000   0.000   1.512    -0.024        0.000
                  8   dn:     0.575   0.937   0.000   0.000   1.512
  Al              9   up:     0.646   0.878   0.000   0.000   1.524    -0.048       -0.000
                  9   dn:     0.646   0.878   0.000   0.000   1.524
  Al             10   up:     0.652   0.861   0.000   0.000   1.513    -0.026        0.000
                 10   dn:     0.652   0.861   0.000   0.000   1.513
  Al             11   up:     0.660   0.844   0.000   0.000   1.505    -0.009        0.000
                 11   dn:     0.660   0.844   0.000   0.000   1.504
  Al             12   up:     0.651   0.874   0.000   0.000   1.525    -0.049        0.000
                 12   dn:     0.651   0.874   0.000   0.000   1.525
  Au              1   up:     1.535   3.000   4.855   7.000  16.390     0.220        0.000
                  1   dn:     1.535   3.000   4.855   7.000  16.390

                 Bond                   Population        Spin       Length (A)
             Al 10 -- Au 1                   0.04        -0.00          2.57897
             Al 9  -- Au 1                   0.04         0.00          2.60463
             Al 12 -- Au 1                  -0.00         0.00          2.68566
             Al 7  -- Al 12                  0.12        -0.00          2.71042
             Al 7  -- Al 11                  0.11        -0.00          2.72447
             Al 1  -- Al 5                   0.05         0.00          2.72988
             Al 11 -- Au 1                  -0.04         0.00          2.73337
             Al 2  -- Al 8                   0.06        -0.00          2.77091
             Al 9  -- Al 11                  0.47         0.00          2.77730
             Al 6  -- Al 9                   0.11         0.00          2.78473
             Al 10 -- Al 12                  0.43         0.00          2.79393
             Al 2  -- Al 5                  -0.03         0.00          2.80340
             Al 7  -- Al 9                   0.00         0.00          2.80369
             Al 1  -- Al 8                  -0.03        -0.00          2.80495
             Al 6  -- Al 10                  0.07         0.00          2.80869
             Al 6  -- Al 8                   0.18         0.00          2.81116
             Al 3  -- Al 4                   0.61         0.00          2.81262
             Al 1  -- Al 2                   0.58        -0.00          2.81282
             Al 2  -- Al 6                   0.03        -0.00          2.81342
             Al 9  -- Al 10                  0.42        -0.00          2.81833
             Al 1  -- Al 3                   0.57         0.00          2.81957
             Al 3  -- Al 7                   0.10        -0.00          2.82162
             Al 4  -- Al 8                   0.04        -0.00          2.82445
             Al 5  -- Al 6                   0.26         0.00          2.82577
             Al 7  -- Al 8                   0.18         0.00          2.83432
             Al 11 -- Al 12                  0.46        -0.00          2.84209
             Al 5  -- Al 7                   0.24         0.00          2.84379
             Al 2  -- Al 4                   0.57         0.00          2.85276
             Al 5  -- Al 9                   0.11        -0.00          2.85532
             Al 7  -- Al 10                 -0.03         0.00          2.85638
             Al 1  -- Al 6                  -0.02        -0.00          2.85747
             Al 3  -- Al 5                  -0.05        -0.00          2.85758
             Al 3  -- Al 8                  -0.03         0.00          2.85967
             Al 8  -- Al 11                  0.05         0.00          2.86198
             Al 4  -- Al 5                  -0.09        -0.00          2.86467
             Al 8  -- Al 9                  -0.01        -0.00          2.86666
             Al 6  -- Al 12                  0.01         0.00          2.87038
             Al 8  -- Al 10                 -0.01        -0.00          2.87300
             Al 8  -- Al 12                  0.02        -0.00          2.87347
             Al 4  -- Al 6                   0.05         0.00          2.87837
             Al 5  -- Al 10                  0.10         0.00          2.88655
             Al 1  -- Al 7                   0.00        -0.00          2.89116
             Al 5  -- Al 12                  0.03        -0.00          2.92105
             Al 6  -- Al 11                  0.01        -0.00          2.92580
             Al 4  -- Al 7                  -0.01         0.00          2.94636
             Al 3  -- Al 6                  -0.05        -0.00          2.99039

Writing analysis data to AlAu_cut_300.0_kpn_2x2x1.castep_bin
Initialisation time =     29.17 s
Calculation time    =     23.84 s
Finalisation time   =      0.42 s
Total time          =     53.43 s

Overall parallel efficiency rating: Poor (40%)

Data was distributed by:-
G-vector (6-way); efficiency rating: Poor (45%)
k-point (2-way); efficiency rating: Good (70%)

Parallel notes:
1) Calculation only took 53.0 s, so efficiency estimates may be inaccurate.