 Run started: Tue, 30 Nov 2021 10:54:35 +0000

 Atomic calculation performed for Cu: 1s2 2s2 2p6 3s2 3p6 3d10 4s1

 Converged in 144 iterations to an ae energy of -45030.712 eV

   | Pseudopotential Report - Date of generation 30-11-2021   |
   | Element: Cu Ionic charge: 11.00 Level of theory: PBE     |
   | Atomic Solver: Koelling-Harmon                           |
   |               Reference Electronic Structure             |
   |         Orbital         Occupation         Energy        |
   |            3d             10.000           -0.185        |
   |            4s              1.000           -0.169        |
   |                 Pseudopotential Definition               |
   |        Beta     l      e      Rc     scheme   norm       |
   |          1      0   -0.169   1.996     qc      0         |
   |          2      0    0.250   1.996     qc      0         |
   |          3      1    0.000   1.996     qc      0         |
   |          4      1    0.250   1.996     qc      0         |
   |          5      2   -0.185   1.996     qc      0         |
   |          6      2    0.250   1.996     qc      0         |
   |         loc     3    0.000   2.206     pn      0         |
   | Augmentation charge Rinner = 0.999                       |
   | Partial core correction Rc = 0.999                       |
   | "3|2.2|2.0|1.0|10|12|13|40:41:32(qc=6)"                  |
   |      Author: Chris J. Pickard, Cambridge University      |

 Pseudo atomic calculation performed for Cu 3d10 4s1

 Converged in 49 iterations to a total energy of -1676.8614 eV
 Calculation parallelised over 128 processes.
 Data is distributed by G-vector(4-way) and k-point(32-way)

 ************************************ Title ************************************

 ***************************** General Parameters ******************************

 output verbosity                               : normal  (1)
 write checkpoint data to                       : CuVac.check
 type of calculation                            : transition state search
 stress calculation                             : off
 density difference calculation                 : off
 electron localisation func (ELF) calculation   : off
 Hirshfeld analysis                             : off
 polarisation (Berry phase) analysis            : off
 molecular orbital projected DOS                : off
 deltaSCF calculation                           : off
 unlimited duration calculation
 timing information                             : on
 write extra output files                       : on
 write final potential to formatted file        : off
 write final density to formatted file          : off
 write structure in CELL formatted file         : on
 write BibTeX reference list                    : on
 write OTFG pseudopotential files               : on
 write electrostatic potential file             : on
 write bands file                               : on
 checkpoint writing                             : both castep_bin and check files

 output         length unit                     : A
 output           mass unit                     : amu
 output           time unit                     : ps
 output         charge unit                     : e
 output           spin unit                     : hbar/2
 output         energy unit                     : eV
 output          force unit                     : eV/A
 output       velocity unit                     : A/ps
 output       pressure unit                     : GPa
 output     inv_length unit                     : 1/A
 output      frequency unit                     : cm-1
 output force constant unit                     : eV/A**2
 output         volume unit                     : A**3
 output   IR intensity unit                     : (D/A)**2/amu
 output         dipole unit                     : D
 output         efield unit                     : eV/A/e
 output        entropy unit                     : J/mol/K
 output    efield chi2 unit                     : pm/V

 wavefunctions paging                           : none
 random number generator seed                   : randomised (105438332)
 data distribution                              : optimal for this architecture

 *********************** Exchange-Correlation Parameters ***********************

 using functional                               : Perdew Burke Ernzerhof
 relativistic treatment                         : Koelling-Harmon
 DFT+D: Semi-empirical dispersion correction    : off

 ************************* Pseudopotential Parameters **************************

 pseudopotential representation                 : reciprocal space
 <beta|phi> representation                      : reciprocal space
 spin-orbit coupling                            : off

 **************************** Basis Set Parameters *****************************

 plane wave basis set cut-off                   :   500.0000   eV
 size of standard grid                          :     1.7500
 size of   fine   gmax                          :    20.0476   1/A
 finite basis set correction                    : none

 **************************** Electronic Parameters ****************************

 number of  electrons                           :  341.0
 net charge of system                           :  0.000
 net spin   of system                           :  1.000
 number of  up  spins                           :  171.0
 number of down spins                           :  170.0
 treating system as spin-polarized
 number of bands                                :        205

 ********************* Electronic Minimization Parameters **********************

 Method: Treating system as metallic with density mixing treatment of electrons,
         and number of  SD  steps               :          1
         and number of  CG  steps               :          4

 total energy / atom convergence tol.           : 0.1000E-04   eV
 eigen-energy convergence tolerance             : 0.1000E-05   eV
 max force / atom convergence tol.              : ignored
 convergence tolerance window                   :          3   cycles
 max. number of SCF cycles                      :        200
 number of fixed-spin iterations                :         10
 smearing scheme                                : Gaussian
 smearing width                                 : 0.2000       eV
 Fermi energy convergence tolerance             : 0.2721E-13   eV
 periodic dipole correction                     : NONE

 ************************** Density Mixing Parameters **************************

 density-mixing scheme                          : Broyden
 max. length of mixing history                  :         20
 charge density mixing amplitude                : 0.5000
   spin density mixing amplitude                :  2.000
 cut-off energy for mixing                      :  500.0       eV

 *********************** Population Analysis Parameters ************************

 Population analysis with cutoff                :  3.000       A
 Population analysis output                     : summary and pdos components

 ********************* Transition State Search Parameters **********************

 search method                                  : NEB
 max. ionic |force| tolerance                   : 0.5000E-01   eV/A
 max. ionic |displacement| tolerance            : 0.1000E-02   A
 max. ionic |energy| tolerance                  : 0.2000E-04   eV
 NEB method                                     : ODE12R
 max. number of NEB iterations                  :        100
 max. number of path points                     :         11
 inter-bead spring constant                     : 0.1000E+00   eV/A**2
 tangent mode                                   : SPLINE
 central bead is                                : climbing up

                                      Unit Cell
        Real Lattice(A)                      Reciprocal Lattice(1/A)
     7.2533590     0.0000000     0.0000000        0.866244909   0.000000000   0.000000000
     0.0000000     7.2533590     0.0000000        0.000000000   0.866244909   0.000000000
     0.0000000     0.0000000     7.2533590        0.000000000   0.000000000   0.866244909

                       Lattice parameters(A)       Cell Angles
                    a =      7.253359          alpha =   90.000000
                    b =      7.253359          beta  =   90.000000
                    c =      7.253359          gamma =   90.000000

                       Current cell volume =           381.608043       A**3
                                   density =             5.162171   AMU/A**3
                                           =             8.571987     g/cm^3

                                     Cell Contents
                         Total number of ions in cell =   31
                      Total number of species in cell =    1
                        Max number of any one species =   31

            x                          Reactant                        x
            x  Element    Atom        Fractional coordinates of atoms  x
            x            Number           u          v          w      x
            x  Cu           1        -0.000002   0.000001   0.000000   x
            x  Cu           2         0.999999   0.250819   0.250805   x
            x  Cu           3         0.250818   0.999997   0.250809   x
            x  Cu           4         0.250814   0.250816  -0.000001   x
            x  Cu           5         0.000002  -0.000003   0.500000   x
            x  Cu           6         0.999999   0.250819   0.749196   x
            x  Cu           7         0.250818  -0.000002   0.749191   x
            x  Cu           8         0.252920   0.252920   0.500000   x
            x  Cu           9         0.999999   0.499999  -0.000000   x
            x  Cu          10         1.000004   0.749181   0.250809   x
            x  Cu          11         0.252916   0.500003   0.252914   x
            x  Cu          12         0.250813   0.749184   0.000001   x
            x  Cu          13         1.000003   0.500004   0.500000   x
            x  Cu          14         1.000003   0.749181   0.749191   x
            x  Cu          15         0.252916   0.500002   0.747085   x
            x  Cu          16         0.252919   0.747080   0.500000   x
            x  Cu          17         0.500002   0.000002   1.000001   x
            x  Cu          18         0.500001   0.252916   0.252911   x
            x  Cu          19         0.749182   0.000001   0.250804   x
            x  Cu          20         0.749186   0.250815  -0.000000   x
            x  Cu          21         0.499997  -0.000002   0.500000   x
            x  Cu          22         0.500002   0.252917   0.747088   x
            x  Cu          23         0.749182   0.000002   0.749195   x
            x  Cu          24         0.747080   0.252919   0.500000   x
            x  Cu          25         0.500001   0.499998   0.000000   x
            x  Cu          26         0.499997   0.747083   0.252916   x
            x  Cu          27         0.747084   0.499999   0.252910   x
            x  Cu          28         0.749187   0.749186   0.000001   x
[...]
     Cu    23      Dxy                  0.965     0.965     0.000
     Cu    23      S                    0.397     0.397     0.000
     Cu    23      Px                   0.079     0.079     0.000
     Cu    23      Py                   0.080     0.080     0.000
     Cu    23      Pz                   0.080     0.080     0.000
     Cu    24      Dzz                  0.978     0.978    -0.000
     Cu    24      Dzy                  0.966     0.966    -0.000
     Cu    24      Dzx                  0.967     0.967    -0.000
     Cu    24      Dxx-yy               0.976     0.976    -0.000
     Cu    24      Dxy                  0.967     0.967    -0.000
     Cu    24      S                    0.413     0.413     0.000
     Cu    24      Px                   0.132     0.132     0.000
     Cu    24      Py                   0.075     0.075     0.000
     Cu    24      Pz                   0.077     0.077     0.000
     Cu    25      Dzz                  0.978     0.978     0.000
     Cu    25      Dzy                  0.965     0.965    -0.000
     Cu    25      Dzx                  0.965     0.965    -0.000
     Cu    25      Dxx-yy               0.978     0.978     0.000
     Cu    25      Dxy                  0.966     0.966    -0.000
     Cu    25      S                    0.397     0.397     0.000
     Cu    25      Px                   0.080     0.080     0.000
     Cu    25      Py                   0.080     0.080     0.000
     Cu    25      Pz                   0.077     0.077    -0.000
     Cu    26      Dzz                  0.978     0.978    -0.000
     Cu    26      Dzy                  0.966     0.966    -0.000
     Cu    26      Dzx                  0.965     0.965    -0.000
     Cu    26      Dxx-yy               0.978     0.978     0.000
     Cu    26      Dxy                  0.965     0.965     0.000
     Cu    26      S                    0.396     0.396     0.000
     Cu    26      Px                   0.079     0.079     0.000
     Cu    26      Py                   0.080     0.080     0.000
     Cu    26      Pz                   0.080     0.080     0.000
     Cu    27      Dzz                  0.978     0.978    -0.000
     Cu    27      Dzy                  0.965     0.965    -0.000
     Cu    27      Dzx                  0.966     0.966    -0.000
     Cu    27      Dxx-yy               0.978     0.978     0.000
     Cu    27      Dxy                  0.965     0.965     0.000
     Cu    27      S                    0.396     0.396     0.000
     Cu    27      Px                   0.080     0.080     0.000
     Cu    27      Py                   0.079     0.079     0.000
     Cu    27      Pz                   0.080     0.080     0.000
     Cu    28      Dzz                  0.977     0.977    -0.000
     Cu    28      Dzy                  0.966     0.966    -0.000
     Cu    28      Dzx                  0.966     0.966    -0.000
     Cu    28      Dxx-yy               0.978     0.978    -0.000
     Cu    28      Dxy                  0.966     0.966     0.000
     Cu    28      S                    0.393     0.393    -0.000
     Cu    28      Px                   0.080     0.080     0.000
     Cu    28      Py                   0.080     0.080     0.000
     Cu    28      Pz                   0.083     0.083     0.000
     Cu    29      Dzz                  0.978     0.978     0.000
     Cu    29      Dzy                  0.966     0.966    -0.000
     Cu    29      Dzx                  0.965     0.965     0.000
     Cu    29      Dxx-yy               0.978     0.978     0.000
     Cu    29      Dxy                  0.965     0.965    -0.000
     Cu    29      S                    0.396     0.396     0.000
     Cu    29      Px                   0.079     0.079     0.000
     Cu    29      Py                   0.080     0.080     0.000
     Cu    29      Pz                   0.080     0.080     0.000
     Cu    30      Dzz                  0.978     0.978     0.000
     Cu    30      Dzy                  0.965     0.965     0.000
     Cu    30      Dzx                  0.966     0.966    -0.000
     Cu    30      Dxx-yy               0.978     0.978     0.000
     Cu    30      Dxy                  0.965     0.965    -0.000
     Cu    30      S                    0.396     0.396     0.000
     Cu    30      Px                   0.080     0.080     0.000
     Cu    30      Py                   0.079     0.079     0.000
     Cu    30      Pz                   0.080     0.080     0.000
     Cu    31      Dzz                  0.980     0.980     0.000
     Cu    31      Dzy                  0.964     0.964    -0.000
     Cu    31      Dzx                  0.964     0.964    -0.000
     Cu    31      Dxx-yy               0.977     0.977    -0.000
     Cu    31      Dxy                  0.971     0.971    -0.000
     Cu    31      S                    0.392     0.392     0.000
     Cu    31      Px                   0.070     0.070     0.000
     Cu    31      Py                   0.070     0.070     0.000
     Cu    31      Pz                   0.074     0.074    -0.000
                           Total:     170.500   170.500    -0.000

     Atomic Populations (Mulliken)
Species          Ion Spin      s       p       d       f      Total   Charge(e)   Spin(hbar/2)
  Cu              1   up:     0.397   0.237   4.853   0.000   5.487     0.026        0.000
                  1   dn:     0.397   0.237   4.853   0.000   5.487
  Cu              2   up:     0.407   0.246   4.857   0.000   5.510    -0.021       -0.000
                  2   dn:     0.407   0.246   4.857   0.000   5.510
  Cu              3   up:     0.407   0.246   4.857   0.000   5.510    -0.021       -0.000
                  3   dn:     0.407   0.246   4.857   0.000   5.510
  Cu              4   up:     0.413   0.283   4.852   0.000   5.548    -0.097        0.000
                  4   dn:     0.413   0.283   4.852   0.000   5.548
  Cu              5   up:     0.407   0.247   4.857   0.000   5.511    -0.022        0.000
                  5   dn:     0.407   0.246   4.857   0.000   5.511
  Cu              6   up:     0.407   0.246   4.857   0.000   5.510    -0.021       -0.000
                  6   dn:     0.407   0.246   4.857   0.000   5.510
  Cu              7   up:     0.407   0.246   4.857   0.000   5.510    -0.021       -0.000
                  7   dn:     0.407   0.246   4.857   0.000   5.510
  Cu              8   up:     0.402   0.243   4.858   0.000   5.503    -0.006        0.000
                  8   dn:     0.402   0.243   4.858   0.000   5.503
  Cu              9   up:     0.397   0.237   4.853   0.000   5.486     0.027        0.000
                  9   dn:     0.397   0.237   4.853   0.000   5.486
  Cu             10   up:     0.397   0.238   4.853   0.000   5.487     0.026        0.000
                 10   dn:     0.397   0.238   4.853   0.000   5.487
  Cu             11   up:     0.409   0.248   4.857   0.000   5.514    -0.028        0.000
                 11   dn:     0.409   0.248   4.857   0.000   5.514
  Cu             12   up:     0.394   0.211   4.857   0.000   5.462     0.077       -0.000
                 12   dn:     0.394   0.211   4.857   0.000   5.462
  Cu             13   up:     0.406   0.246   4.857   0.000   5.510    -0.020        0.000
                 13   dn:     0.406   0.246   4.857   0.000   5.510
  Cu             14   up:     0.397   0.238   4.853   0.000   5.487     0.026        0.000
                 14   dn:     0.397   0.238   4.853   0.000   5.487
  Cu             15   up:     0.409   0.248   4.857   0.000   5.514    -0.028        0.000
                 15   dn:     0.409   0.248   4.857   0.000   5.514
  Cu             16   up:     0.413   0.284   4.852   0.000   5.549    -0.098       -0.000
                 16   dn:     0.413   0.284   4.852   0.000   5.549
  Cu             17   up:     0.397   0.237   4.853   0.000   5.486     0.027        0.000
                 17   dn:     0.397   0.237   4.853   0.000   5.486
  Cu             18   up:     0.409   0.248   4.857   0.000   5.514    -0.028        0.000
                 18   dn:     0.409   0.248   4.857   0.000   5.514
  Cu             19   up:     0.397   0.238   4.853   0.000   5.487     0.026        0.000
                 19   dn:     0.397   0.238   4.853   0.000   5.487
  Cu             20   up:     0.394   0.211   4.857   0.000   5.462     0.077       -0.000
                 20   dn:     0.394   0.211   4.857   0.000   5.462
  Cu             21   up:     0.406   0.246   4.857   0.000   5.510    -0.020        0.000
                 21   dn:     0.406   0.246   4.857   0.000   5.510
  Cu             22   up:     0.409   0.248   4.857   0.000   5.514    -0.028        0.000
                 22   dn:     0.409   0.248   4.857   0.000   5.514
  Cu             23   up:     0.397   0.238   4.853   0.000   5.487     0.026        0.000
                 23   dn:     0.397   0.238   4.853   0.000   5.487
  Cu             24   up:     0.413   0.284   4.852   0.000   5.549    -0.098       -0.000
                 24   dn:     0.413   0.284   4.852   0.000   5.549
  Cu             25   up:     0.397   0.236   4.853   0.000   5.486     0.027        0.000
                 25   dn:     0.397   0.236   4.853   0.000   5.486
  Cu             26   up:     0.396   0.239   4.853   0.000   5.488     0.024       -0.000
                 26   dn:     0.396   0.239   4.853   0.000   5.488
  Cu             27   up:     0.396   0.239   4.853   0.000   5.488     0.024       -0.000
                 27   dn:     0.396   0.239   4.853   0.000   5.488
  Cu             28   up:     0.393   0.243   4.853   0.000   5.489     0.022       -0.000
                 28   dn:     0.393   0.243   4.853   0.000   5.489
  Cu             29   up:     0.396   0.239   4.853   0.000   5.488     0.024        0.000
                 29   dn:     0.396   0.239   4.853   0.000   5.488
  Cu             30   up:     0.396   0.239   4.853   0.000   5.488     0.024        0.000
                 30   dn:     0.396   0.239   4.853   0.000   5.488
  Cu             31   up:     0.392   0.214   4.857   0.000   5.463     0.073       -0.000
                 31   dn:     0.392   0.214   4.857   0.000   5.463

                 Bond                   Population        Spin       Length (A)
             Cu 8  -- Cu 18                  0.31         0.00          2.52337
             Cu 8  -- Cu 11                  0.31        -0.00          2.52337
             Cu 8  -- Cu 15                  0.31         0.00          2.52343
             Cu 8  -- Cu 22                  0.31         0.00          2.52343
             Cu 2  -- Cu 13                  0.31         0.00          2.53082
             Cu 3  -- Cu 21                  0.31         0.00          2.53082
             Cu 7  -- Cu 21                  0.31         0.00          2.53087
             Cu 6  -- Cu 13                  0.31         0.00          2.53088
             Cu 2  -- Cu 11                  0.31         0.00          2.53427
             Cu 3  -- Cu 18                  0.31        -0.00          2.53427
             Cu 6  -- Cu 15                  0.31        -0.00          2.53428
             Cu 7  -- Cu 22                  0.31        -0.00          2.53428
             Cu 2  -- Cu 5                   0.31        -0.00          2.53502
             Cu 3  -- Cu 5                   0.31        -0.00          2.53503
             Cu 5  -- Cu 7                   0.31        -0.00          2.53508
             Cu 5  -- Cu 6                   0.31        -0.00          2.53509
             Cu 2  -- Cu 3                   0.31         0.00          2.53950
             Cu 6  -- Cu 7                   0.31         0.00          2.53951
             Cu 18 -- Cu 21                  0.31         0.00          2.54094
             Cu 11 -- Cu 13                  0.31         0.00          2.54095
             Cu 13 -- Cu 15                  0.31         0.00          2.54100
             Cu 21 -- Cu 22                  0.31         0.00          2.54101
             Cu 24 -- Cu 27                  0.27         0.00          2.54135
             Cu 16 -- Cu 26                  0.27         0.00          2.54135
             Cu 16 -- Cu 29                  0.27         0.00          2.54139
             Cu 24 -- Cu 30                  0.27         0.00          2.54140
             Cu 27 -- Cu 31                  0.27         0.00          2.54520
             Cu 26 -- Cu 31                  0.27         0.00          2.54521
             Cu 29 -- Cu 31                  0.27         0.00          2.54525
             Cu 30 -- Cu 31                  0.27         0.00          2.54526
             Cu 1  -- Cu 4                   0.26         0.00          2.54643
             Cu 9  -- Cu 20                  0.27         0.00          2.54856
             Cu 12 -- Cu 17                  0.27         0.00          2.54856
             Cu 4  -- Cu 18                  0.30         0.00          2.55126
             Cu 4  -- Cu 11                  0.30         0.00          2.55126
             Cu 4  -- Cu 15                  0.30         0.00          2.55131
             Cu 4  -- Cu 22                  0.30         0.00          2.55131
             Cu 21 -- Cu 24                  0.30        -0.00          2.55153
             Cu 13 -- Cu 16                  0.30        -0.00          2.55153
             Cu 17 -- Cu 28                  0.28        -0.00          2.55491
             Cu 9  -- Cu 28                  0.28        -0.00          2.55491
             Cu 1  -- Cu 20                  0.27         0.00          2.55545
             Cu 1  -- Cu 12                  0.27         0.00          2.55545
             Cu 25 -- Cu 28                  0.28        -0.00          2.55552
             Cu 15 -- Cu 22                  0.30         0.00          2.55587
             Cu 11 -- Cu 18                  0.30         0.00          2.55587
             Cu 19 -- Cu 24                  0.26        -0.00          2.55699
             Cu 10 -- Cu 16                  0.26        -0.00          2.55699
             Cu 14 -- Cu 16                  0.26         0.00          2.55703
             Cu 23 -- Cu 24                  0.26         0.00          2.55703
             Cu 17 -- Cu 22                  0.25         0.00          2.55882
             Cu 9  -- Cu 15                  0.25         0.00          2.55883
             Cu 9  -- Cu 11                  0.25        -0.00          2.55884
             Cu 17 -- Cu 18                  0.25        -0.00          2.55884
             Cu 2  -- Cu 4                   0.30         0.00          2.56202
             Cu 3  -- Cu 4                   0.30         0.00          2.56203
             Cu 4  -- Cu 7                   0.30         0.00          2.56207
             Cu 4  -- Cu 6                   0.30         0.00          2.56207
             Cu 8  -- Cu 24                  0.30         0.00          2.56304
             Cu 8  -- Cu 16                  0.30         0.00          2.56304
[...]
             Cu 28 -- Cu 29                  0.27        -0.00          2.58537
             Cu 26 -- Cu 28                  0.27        -0.00          2.58538
             Cu 27 -- Cu 28                  0.27        -0.00          2.58538
             Cu 2  -- Cu 20                  0.24         0.00          2.58612
             Cu 7  -- Cu 12                  0.24         0.00          2.58613
             Cu 3  -- Cu 12                  0.24         0.00          2.58615
             Cu 6  -- Cu 20                  0.24         0.00          2.58616
             Cu 8  -- Cu 27                  0.23         0.00          2.60112
             Cu 8  -- Cu 26                  0.23         0.00          2.60113
             Cu 8  -- Cu 29                  0.23         0.00          2.60117
             Cu 8  -- Cu 30                  0.23         0.00          2.60118
             Cu 13 -- Cu 31                  0.23        -0.00          2.60750
             Cu 21 -- Cu 31                  0.23        -0.00          2.60750
             Cu 5  -- Cu 31                  0.23         0.00          2.61044
             Cu 8  -- Cu 31                  0.22         0.00          2.66068

Writing analysis data to CuVac.castep_bin

Writing model to CuVac.check

 A BibTeX formatted list of references used in this run has been written to
 CuVac.bib

Initialisation time =      9.25 s
Calculation time    =   9326.40 s
Finalisation time   =      2.80 s
Total time          =   9338.45 s

Overall parallel efficiency rating: Mediocre (50%)

Data was distributed by:-
G-vector (4-way); efficiency rating: Mediocre (58%)
k-point (32-way); efficiency rating: Very good (80%)