 Compiled for linux_x86_64_ifort on Thu, 05 Aug 2021 16:13:05 +0100
 from code version
 f12f38a+  new-neb-implementation  Thu Aug 5 15:34:27 2021 +0100
 Compiler: Intel Fortran 18.0.3.222; Optimisation: fast
 MATHLIBS: Intel MKL(2018.0.3) (LAPACK version 3.7.0)
 FFT Lib : default
 Fundamental constants values: CODATA 2014

 Run started: Thu, 05 Aug 2021 17:22:01 +0100

 Atomic calculation performed for Cu: 1s2 2s2 2p6 3s2 3p6 3d10 4s1

 Converged in 145 iterations to an ae energy of -45030.712 eV

   | Pseudopotential Report - Date of generation  5-08-2021   |
   | Element: Cu Ionic charge: 11.00 Level of theory: PBE     |
   | Atomic Solver: Koelling-Harmon                           |
   |               Reference Electronic Structure             |
   |         Orbital         Occupation         Energy        |
   |            3d             10.000           -0.185        |
   |            4s              1.000           -0.169        |
   |                 Pseudopotential Definition               |
   |        Beta     l      e      Rc     scheme   norm       |
   |          1      0   -0.169   1.996     qc      0         |
   |          2      0    0.250   1.996     qc      0         |
   |          3      1    0.000   1.996     qc      0         |
   |          4      1    0.250   1.996     qc      0         |
   |          5      2   -0.185   1.996     qc      0         |
   |          6      2    0.250   1.996     qc      0         |
   |         loc     3    0.000   2.206     pn      0         |
   | Augmentation charge Rinner = 0.999                       |
   | Partial core correction Rc = 0.999                       |
   | "3|2.2|2.0|1.0|10|12|13|40:41:32(qc=6)"                  |
   |      Author: Chris J. Pickard, Cambridge University      |

 Pseudo atomic calculation performed for Cu 3d10 4s1

 Converged in 49 iterations to a total energy of -1676.7356 eV
 Calculation parallelised over 8 processes.
 Data is distributed by k-point(8-way)

 ************************************ Title ************************************

 ***************************** General Parameters ******************************

 output verbosity                               : normal  (1)
 write checkpoint data to                       : Cu_cut_400.0_kpn_4x4x4.check
 type of calculation                            : single point energy
 stress calculation                             : on
 density difference calculation                 : off
 electron localisation func (ELF) calculation   : off
 Hirshfeld analysis                             : off
 polarisation (Berry phase) analysis            : off
 molecular orbital projected DOS                : off
 deltaSCF calculation                           : off
 unlimited duration calculation
 timing information                             : on
 write extra output files                       : on
 write final potential to formatted file        : off
 write final density to formatted file          : off
 write BibTeX reference list                    : on
 write OTFG pseudopotential files               : on
 write electrostatic potential file             : on
 write bands file                               : on
 checkpoint writing                             : write castep_bin only

 output         length unit                     : A
 output           mass unit                     : amu
 output           time unit                     : ps
 output         charge unit                     : e
 output           spin unit                     : hbar/2
 output         energy unit                     : eV
 output          force unit                     : eV/A
 output       velocity unit                     : A/ps
 output       pressure unit                     : GPa
 output     inv_length unit                     : 1/A
 output      frequency unit                     : cm-1
 output force constant unit                     : eV/A**2
 output         volume unit                     : A**3
 output   IR intensity unit                     : (D/A)**2/amu
 output         dipole unit                     : D
 output         efield unit                     : eV/A/e
 output        entropy unit                     : J/mol/K
 output    efield chi2 unit                     : pm/V

 wavefunctions paging                           : none
 random number generator seed                   : randomised (172201106)
 data distribution                              : optimal for this architecture

 *********************** Exchange-Correlation Parameters ***********************

 using functional                               : Perdew Burke Ernzerhof
 relativistic treatment                         : Koelling-Harmon
 DFT+D: Semi-empirical dispersion correction    : off

 ************************* Pseudopotential Parameters **************************

 pseudopotential representation                 : reciprocal space
 <beta|phi> representation                      : reciprocal space
 spin-orbit coupling                            : off

 **************************** Basis Set Parameters *****************************

 plane wave basis set cut-off                   :   400.0000   eV
 size of standard grid                          :     1.7500
 size of   fine   gmax                          :    17.9311   1/A
 finite basis set correction                    : automatic
 number of sample energies                      :          3
           sample  spacing                      :     5.0000   eV

 **************************** Electronic Parameters ****************************

 number of  electrons                           :  352.0
 net charge of system                           :  0.000
 treating system as non-spin-polarized
 number of bands                                :        211

 ********************* Electronic Minimization Parameters **********************

 Method: Treating system as metallic with density mixing treatment of electrons,
         and number of  SD  steps               :          1
         and number of  CG  steps               :          4

 total energy / atom convergence tol.           : 0.1000E-04   eV
 eigen-energy convergence tolerance             : 0.1000E-05   eV
 max force / atom convergence tol.              : ignored
 convergence tolerance window                   :          3   cycles
 max. number of SCF cycles                      :        100
 number of fixed-spin iterations                :         10
 smearing scheme                                : Gaussian
 smearing width                                 : 0.2000       eV
 Fermi energy convergence tolerance             : 0.2721E-13   eV
 periodic dipole correction                     : NONE

 ************************** Density Mixing Parameters **************************

 density-mixing scheme                          : Broyden
 max. length of mixing history                  :         20
 charge density mixing amplitude                : 0.8000
 cut-off energy for mixing                      :  400.0       eV

 *********************** Population Analysis Parameters ************************

 Population analysis with cutoff                :  3.000       A
 Population analysis output                     : summary and pdos components

                                      Unit Cell
        Real Lattice(A)                      Reciprocal Lattice(1/A)
     7.2200000     0.0000000     0.0000000        0.870247272   0.000000000   0.000000000
     0.0000000     7.2200000     0.0000000        0.000000000   0.870247272   0.000000000
     0.0000000     0.0000000     7.2200000        0.000000000   0.000000000   0.870247272

                       Lattice parameters(A)       Cell Angles
                    a =      7.220000          alpha =   90.000000
                    b =      7.220000          beta  =   90.000000
                    c =      7.220000          gamma =   90.000000

                       Current cell volume =           376.367048       A**3
                                   density =             5.402896   AMU/A**3
                                           =             8.971720     g/cm^3

                                     Cell Contents
                         Total number of ions in cell =   32
                      Total number of species in cell =    1
                        Max number of any one species =   32

            x  Element    Atom        Fractional coordinates of atoms  x
            x            Number           u          v          w      x
            x  Cu           1         0.003440  -0.000957   0.004485   x
            x  Cu           2         0.010547   0.248378   0.248379   x
            x  Cu           3         0.260936   0.005315   0.246749   x
            x  Cu           4         0.253757   0.246791  -0.003225   x
            x  Cu           5         0.001676  -0.013250   0.488055   x
            x  Cu           6        -0.003894   0.242986   0.752176   x
            x  Cu           7         0.243712  -0.009780   0.760150   x
            x  Cu           8         0.248436   0.250468   0.490133   x
            x  Cu           9        -0.003770   0.500768  -0.007971   x
            x  Cu          10         0.002602   0.745840   0.247980   x
            x  Cu          11         0.245833   0.512827   0.249907   x
            x  Cu          12         0.242675   0.755696  -0.008455   x
            x  Cu          13         0.001446   0.486429   0.490802   x
            x  Cu          14         0.001363   0.755114   0.751187   x
            x  Cu          15         0.249199   0.497915   0.739761   x
            x  Cu          16         0.245015   0.746810   0.507321   x
            x  Cu          17         0.502380  -0.012209   0.002244   x
            x  Cu          18         0.497333   0.245312   0.254236   x
            x  Cu          19         0.757140   0.006449   0.244188   x
            x  Cu          20         0.747859   0.252294   0.006756   x
            x  Cu          21         0.496682  -0.001286   0.492338   x
            x  Cu          22         0.491716   0.255627   0.759392   x
            x  Cu          23         0.749501   0.006950   0.752504   x
            x  Cu          24         0.745532   0.252503   0.510651   x
            x  Cu          25         0.499752   0.510835  -0.018142   x
            x  Cu          26         0.505692   0.750603   0.247929   x
            x  Cu          27         0.750635   0.486236   0.248479   x
            x  Cu          28         0.752473   0.760235  -0.003589   x
            x  Cu          29         0.494401   0.496525   0.506339   x
            x  Cu          30         0.502277   0.746331   0.753554   x
            x  Cu          31         0.750672   0.506708   0.745138   x
            x  Cu          32         0.747731   0.747285   0.489865   x

                         No user defined ionic velocities

                                   Details of Species

                               Mass of species in AMU
                                    Cu   63.5460000

                          Electric Quadrupole Moment (Barn)
                                    Cu   -0.2200000 Isotope 63

[...]
     Cu    11      Dzy                  1.932
     Cu    11      Dzx                  1.933
     Cu    11      Dxx-yy               1.957
     Cu    11      Dxy                  1.930
     Cu    11      S                    0.815
     Cu    11      Px                   0.167
     Cu    11      Py                   0.160
     Cu    11      Pz                   0.173
     Cu    12      Dzz                  1.955
     Cu    12      Dzy                  1.930
     Cu    12      Dzx                  1.931
     Cu    12      Dxx-yy               1.956
     Cu    12      Dxy                  1.930
     Cu    12      S                    0.835
     Cu    12      Px                   0.142
     Cu    12      Py                   0.139
     Cu    12      Pz                   0.141
     Cu    13      Dzz                  1.956
     Cu    13      Dzy                  1.932
     Cu    13      Dzx                  1.930
     Cu    13      Dxx-yy               1.955
     Cu    13      Dxy                  1.931
     Cu    13      S                    0.824
     Cu    13      Px                   0.145
     Cu    13      Py                   0.162
     Cu    13      Pz                   0.160
     Cu    14      Dzz                  1.955
     Cu    14      Dzy                  1.933
     Cu    14      Dzx                  1.929
     Cu    14      Dxx-yy               1.956
     Cu    14      Dxy                  1.930
     Cu    14      S                    0.828
     Cu    14      Px                   0.139
     Cu    14      Py                   0.160
     Cu    14      Pz                   0.153
     Cu    15      Dzz                  1.957
     Cu    15      Dzy                  1.931
     Cu    15      Dzx                  1.929
     Cu    15      Dxx-yy               1.954
     Cu    15      Dxy                  1.932
     Cu    15      S                    0.828
     Cu    15      Px                   0.143
     Cu    15      Py                   0.155
     Cu    15      Pz                   0.149
     Cu    16      Dzz                  1.955
     Cu    16      Dzy                  1.930
     Cu    16      Dzx                  1.932
     Cu    16      Dxx-yy               1.956
     Cu    16      Dxy                  1.931
     Cu    16      S                    0.822
     Cu    16      Px                   0.164
     Cu    16      Py                   0.150
     Cu    16      Pz                   0.154
     Cu    17      Dzz                  1.956
     Cu    17      Dzy                  1.931
     Cu    17      Dzx                  1.930
     Cu    17      Dxx-yy               1.954
     Cu    17      Dxy                  1.931
     Cu    17      S                    0.830
     Cu    17      Px                   0.136
     Cu    17      Py                   0.152
     Cu    17      Pz                   0.150
     Cu    18      Dzz                  1.955
     Cu    18      Dzy                  1.934
     Cu    18      Dzx                  1.930
     Cu    18      Dxx-yy               1.956
     Cu    18      Dxy                  1.930
     Cu    18      S                    0.817
     Cu    18      Px                   0.145
     Cu    18      Py                   0.166
     Cu    18      Pz                   0.168
     Cu    19      Dzz                  1.957
     Cu    19      Dzy                  1.931
     Cu    19      Dzx                  1.930
     Cu    19      Dxx-yy               1.954
     Cu    19      Dxy                  1.932
     Cu    19      S                    0.822
     Cu    19      Px                   0.148
     Cu    19      Py                   0.163
     Cu    19      Pz                   0.152
     Cu    20      Dzz                  1.956
     Cu    20      Dzy                  1.929
     Cu    20      Dzx                  1.932
     Cu    20      Dxx-yy               1.955
     Cu    20      Dxy                  1.934
     Cu    20      S                    0.818
     Cu    20      Px                   0.179
     Cu    20      Py                   0.155
     Cu    20      Pz                   0.150
     Cu    21      Dzz                  1.955
     Cu    21      Dzy                  1.932
     Cu    21      Dzx                  1.933
     Cu    21      Dxx-yy               1.957
     Cu    21      Dxy                  1.932
     Cu    21      S                    0.808
     Cu    21      Px                   0.178
     Cu    21      Py                   0.169
     Cu    21      Pz                   0.173
     Cu    22      Dzz                  1.956
     Cu    22      Dzy                  1.932
     Cu    22      Dzx                  1.930
     Cu    22      Dxx-yy               1.954
     Cu    22      Dxy                  1.933
     Cu    22      S                    0.817
     Cu    22      Px                   0.164
     Cu    22      Py                   0.163
     Cu    22      Pz                   0.159
     Cu    23      Dzz                  1.955
     Cu    23      Dzy                  1.931
     Cu    23      Dzx                  1.934
     Cu    23      Dxx-yy               1.957
     Cu    23      Dxy                  1.931
     Cu    23      S                    0.812
     Cu    23      Px                   0.176
     Cu    23      Py                   0.158
     Cu    23      Pz                   0.171
     Cu    24      Dzz                  1.955
     Cu    24      Dzy                  1.930
     Cu    24      Dzx                  1.933
     Cu    24      Dxx-yy               1.956
     Cu    24      Dxy                  1.932
     Cu    24      S                    0.812
     Cu    24      Px                   0.171
     Cu    24      Py                   0.166
     Cu    24      Pz                   0.162
     Cu    25      Dzz                  1.956
     Cu    25      Dzy                  1.930
     Cu    25      Dzx                  1.933
     Cu    25      Dxx-yy               1.955
     Cu    25      Dxy                  1.933
     Cu    25      S                    0.817
     Cu    25      Px                   0.181
     Cu    25      Py                   0.151
     Cu    25      Pz                   0.156
     Cu    26      Dzz                  1.955
     Cu    26      Dzy                  1.931
     Cu    26      Dzx                  1.933
     Cu    26      Dxx-yy               1.957
     Cu    26      Dxy                  1.932
     Cu    26      S                    0.811
     Cu    26      Px                   0.174
     Cu    26      Py                   0.170
     Cu    26      Pz                   0.163
     Cu    27      Dzz                  1.955
     Cu    27      Dzy                  1.931
     Cu    27      Dzx                  1.933
     Cu    27      Dxx-yy               1.956
     Cu    27      Dxy                  1.932
     Cu    27      S                    0.810
     Cu    27      Px                   0.182
     Cu    27      Py                   0.166
     Cu    27      Pz                   0.167
     Cu    28      Dzz                  1.956
     Cu    28      Dzy                  1.933
     Cu    28      Dzx                  1.930
     Cu    28      Dxx-yy               1.955
     Cu    28      Dxy                  1.929
     Cu    28      S                    0.828
     Cu    28      Px                   0.137
     Cu    28      Py                   0.151
     Cu    28      Pz                   0.160
     Cu    29      Dzz                  1.955
     Cu    29      Dzy                  1.932
     Cu    29      Dzx                  1.931
     Cu    29      Dxx-yy               1.955
     Cu    29      Dxy                  1.930
     Cu    29      S                    0.819
     Cu    29      Px                   0.148
     Cu    29      Py                   0.165
     Cu    29      Pz                   0.161
     Cu    30      Dzz                  1.956
     Cu    30      Dzy                  1.928
     Cu    30      Dzx                  1.932
     Cu    30      Dxx-yy               1.955
     Cu    30      Dxy                  1.932
     Cu    30      S                    0.829
     Cu    30      Px                   0.159
     Cu    30      Py                   0.140
     Cu    30      Pz                   0.146
     Cu    31      Dzz                  1.957
     Cu    31      Dzy                  1.932
     Cu    31      Dzx                  1.930
     Cu    31      Dxx-yy               1.955
     Cu    31      Dxy                  1.932
     Cu    31      S                    0.818
     Cu    31      Px                   0.151
     Cu    31      Py                   0.165
     Cu    31      Pz                   0.158
     Cu    32      Dzz                  1.956
     Cu    32      Dzy                  1.933
     Cu    32      Dzx                  1.931
     Cu    32      Dxx-yy               1.956
     Cu    32      Dxy                  1.932
     Cu    32      S                    0.807
     Cu    32      Px                   0.171
     Cu    32      Py                   0.180
     Cu    32      Pz                   0.172
                           Total:     352.000

     Atomic Populations (Mulliken)
Species          Ion     s       p       d       f      Total   Charge (e)
  Cu              1     0.837   0.413   9.701   0.000  10.951     0.049
  Cu              2     0.826   0.449   9.703   0.000  10.978     0.022
  Cu              3     0.835   0.430   9.702   0.000  10.967     0.033
  Cu              4     0.818   0.488   9.706   0.000  11.012    -0.012
  Cu              5     0.815   0.500   9.707   0.000  11.022    -0.022
  Cu              6     0.810   0.510   9.707   0.000  11.026    -0.026
  Cu              7     0.831   0.461   9.705   0.000  10.997     0.003
  Cu              8     0.823   0.464   9.704   0.000  10.991     0.009
  Cu              9     0.812   0.505   9.707   0.000  11.023    -0.023
  Cu             10     0.821   0.465   9.704   0.000  10.990     0.010
  Cu             11     0.815   0.500   9.707   0.000  11.021    -0.021
  Cu             12     0.835   0.422   9.702   0.000  10.959     0.041
  Cu             13     0.824   0.466   9.704   0.000  10.994     0.006
  Cu             14     0.828   0.452   9.703   0.000  10.983     0.017
  Cu             15     0.828   0.447   9.703   0.000  10.977     0.023
  Cu             16     0.822   0.469   9.704   0.000  10.995     0.005
  Cu             17     0.830   0.438   9.702   0.000  10.971     0.029
  Cu             18     0.817   0.479   9.705   0.000  11.001    -0.001
  Cu             19     0.822   0.463   9.704   0.000  10.989     0.011
  Cu             20     0.818   0.484   9.705   0.000  11.008    -0.008
  Cu             21     0.808   0.520   9.708   0.000  11.036    -0.036
  Cu             22     0.817   0.486   9.706   0.000  11.009    -0.009
  Cu             23     0.812   0.505   9.707   0.000  11.025    -0.025
  Cu             24     0.812   0.499   9.706   0.000  11.018    -0.018
  Cu             25     0.817   0.488   9.707   0.000  11.012    -0.012
  Cu             26     0.811   0.507   9.707   0.000  11.025    -0.025
  Cu             27     0.810   0.514   9.708   0.000  11.032    -0.032
  Cu             28     0.828   0.449   9.703   0.000  10.979     0.021
  Cu             29     0.819   0.475   9.704   0.000  10.997     0.003
  Cu             30     0.829   0.444   9.703   0.000  10.976     0.024
  Cu             31     0.818   0.474   9.704   0.000  10.997     0.003
  Cu             32     0.807   0.523   9.708   0.000  11.038    -0.038

                 Bond                   Population      Length (A)
             Cu 25 -- Cu 30                  0.31        2.36819
             Cu 7  -- Cu 12                  0.29        2.37873
             Cu 4  -- Cu 22                  0.32        2.42761
             Cu 20 -- Cu 27                  0.34        2.42882
             Cu 10 -- Cu 11                  0.32        2.43197
             Cu 3  -- Cu 18                  0.30        2.43281
             Cu 7  -- Cu 14                  0.29        2.43869
             Cu 17 -- Cu 28                  0.29        2.44162
             Cu 15 -- Cu 29                  0.30        2.44428
             Cu 22 -- Cu 25                  0.31        2.44509
             Cu 2  -- Cu 8                   0.29        2.44886
             Cu 2  -- Cu 13                  0.29        2.45395
             Cu 5  -- Cu 10                  0.31        2.45559
             Cu 3  -- Cu 21                  0.30        2.45834
             Cu 15 -- Cu 16                  0.30        2.45899
             Cu 12 -- Cu 14                  0.27        2.45909
             Cu 6  -- Cu 23                  0.33        2.46462
             Cu 1  -- Cu 12                  0.27        2.46559
             Cu 17 -- Cu 26                  0.30        2.46571
             Cu 8  -- Cu 13                  0.29        2.46626
             Cu 19 -- Cu 20                  0.31        2.46856
             Cu 26 -- Cu 32                  0.32        2.47096
             Cu 5  -- Cu 16                  0.31        2.47127
             Cu 18 -- Cu 21                  0.30        2.47493
             Cu 1  -- Cu 7                   0.27        2.47498
             Cu 8  -- Cu 18                  0.28        2.47619
             Cu 15 -- Cu 22                  0.29        2.47913
             Cu 1  -- Cu 19                  0.29        2.48200
             Cu 3  -- Cu 17                  0.29        2.48419
             Cu 11 -- Cu 13                  0.28        2.48490
             Cu 23 -- Cu 24                  0.34        2.48860
             Cu 14 -- Cu 16                  0.30        2.48965
             Cu 25 -- Cu 31                  0.28        2.49079
             Cu 30 -- Cu 31                  0.28        2.49263
             Cu 3  -- Cu 8                   0.28        2.49578
             Cu 24 -- Cu 31                  0.29        2.49723
             Cu 5  -- Cu 19                  0.30        2.49750
             Cu 1  -- Cu 28                  0.27        2.50190
             Cu 17 -- Cu 30                  0.27        2.50264
             Cu 23 -- Cu 28                  0.27        2.50491
             Cu 13 -- Cu 24                  0.28        2.50740
             Cu 3  -- Cu 4                   0.29        2.50992
             Cu 11 -- Cu 16                  0.29        2.51159
             Cu 6  -- Cu 24                  0.30        2.51368
             Cu 9  -- Cu 31                  0.30        2.51448
             Cu 8  -- Cu 29                  0.27        2.51465
             Cu 21 -- Cu 26                  0.29        2.51538
             Cu 12 -- Cu 17                  0.27        2.51593
             Cu 15 -- Cu 25                  0.27        2.51723
             Cu 13 -- Cu 27                  0.29        2.51798
             Cu 1  -- Cu 2                   0.28        2.51876
             Cu 28 -- Cu 30                  0.27        2.51947
             Cu 2  -- Cu 3                   0.28        2.51954
             Cu 5  -- Cu 32                  0.31        2.52013
             Cu 4  -- Cu 7                   0.29        2.52102
             Cu 19 -- Cu 28                  0.28        2.52222
             Cu 22 -- Cu 29                  0.27        2.52261
             Cu 14 -- Cu 28                  0.28        2.52295
             Cu 18 -- Cu 27                  0.30        2.52431
             Cu 2  -- Cu 4                   0.29        2.52657
[...]
             Cu 4  -- Cu 11                  0.27        2.65195
             Cu 12 -- Cu 26                  0.26        2.65217
             Cu 3  -- Cu 16                  0.22        2.65256
             Cu 16 -- Cu 26                  0.24        2.65526
             Cu 5  -- Cu 6                   0.26        2.65720
             Cu 7  -- Cu 21                  0.27        2.66054
             Cu 11 -- Cu 25                  0.28        2.66582
             Cu 23 -- Cu 32                  0.25        2.66660
             Cu 5  -- Cu 24                  0.25        2.66988
             Cu 21 -- Cu 22                  0.26        2.67575
             Cu 27 -- Cu 28                  0.24        2.68810
             Cu 2  -- Cu 24                  0.21        2.69217
             Cu 13 -- Cu 14                  0.23        2.70140
             Cu 7  -- Cu 8                   0.25        2.70784
             Cu 18 -- Cu 25                  0.23        2.74643

Writing analysis data to Cu_cut_400.0_kpn_4x4x4.castep_bin
Initialisation time =     11.58 s
Calculation time    =   1068.95 s
Finalisation time   =      0.22 s
Total time          =   1080.74 s

Overall parallel efficiency rating: Excellent (97%)

Data was distributed by:-
k-point (8-way); efficiency rating: Excellent (97%)