 Compiled for linux_x86_64_ifort on Thu, 05 Aug 2021 16:13:05 +0100
 from code version
 f12f38a+  new-neb-implementation  Thu Aug 5 15:34:27 2021 +0100
 Compiler: Intel Fortran 18.0.3.222; Optimisation: fast
 MATHLIBS: Intel MKL(2018.0.3) (LAPACK version 3.7.0)
 FFT Lib : default
 Fundamental constants values: CODATA 2014

 Run started: Mon, 09 Aug 2021 17:31:53 +0100

 Atomic calculation performed for Al: 1s2 2s2 2p6 3s2 3p1

 Converged in 54 iterations to an ae energy of -6603.783 eV

   | Pseudopotential Report - Date of generation  9-08-2021   |
   | Element: Al Ionic charge:  3.00 Level of theory: PBE     |
   | Atomic Solver: Koelling-Harmon                           |
   |               Reference Electronic Structure             |
   |         Orbital         Occupation         Energy        |
   |            3s              2.000           -0.285        |
   |            3p              1.000           -0.100        |
   |                 Pseudopotential Definition               |
   |        Beta     l      e      Rc     scheme   norm       |
   |          1      0   -0.285   2.192     qc      0         |
   |          2      0    0.250   2.192     qc      0         |
   |          3      1   -0.100   2.192     qc      0         |
   |          4      1    0.250   2.192     qc      0         |
   |          5      2    0.000   2.000     qc      0         |
   |          6      2    0.250   2.000     qc      0         |
   |         loc     3    0.000   2.192     pn      0         |
   | Augmentation charge Rinner = 1.398                       |
   | Partial core correction Rc = 1.398                       |
   | "3|2.2|2.2|1.4|4|5|5|30:31:32U2U2"                       |
   |      Author: Chris J. Pickard, Cambridge University      |

 Atomic calculation performed for Au:

 Converged in 94 iterations to an ae energy of -517336.889 eV

   | Pseudopotential Report - Date of generation  9-08-2021   |
   | Element: Au Ionic charge: 33.00 Level of theory: PBE     |
   | Atomic Solver: Koelling-Harmon                           |
   |               Reference Electronic Structure             |
   |         Orbital         Occupation         Energy        |
   |            5s              2.000           -3.982        |
   |            4f             14.000           -2.981        |
   |            5p              6.000           -2.197        |
   |            5d             10.000           -0.253        |
   |            6s              1.000           -0.212        |
   |                 Pseudopotential Definition               |
   |        Beta     l      e      Rc     scheme   norm       |
   |          1      0   -3.982   2.392     qc      0         |
   |          2      0   -0.212   2.392     qc      0         |
   |          3      0    0.250   2.392     qc      0         |
   |          4      1   -2.197   2.392     qc      0         |
   |          5      1    0.250   2.392     qc      0         |
   |          6      2   -0.253   2.392     qc      0         |
   |          7      2    0.250   2.392     qc      0         |
   |          8      3   -2.981   2.392     qc      0         |
   |          9      3    0.250   2.392     qc      0         |
   |         loc     3    0.000   2.392     pn      0         |
   | Augmentation charge Rinner = 1.686                       |
   | Partial core correction Rc = 1.686                       |
   | "3|2.4|9|10|11|50U:60:51:52:43(qc=6)"                    |
   |      Author: Chris J. Pickard, Cambridge University      |

 Pseudo atomic calculation performed for Al 3s2 3p1

 Converged in 14 iterations to a total energy of -107.1300 eV

 Pseudo atomic calculation performed for Au 4f14 5s2 5p6 5d10 6s1

 Converged in 33 iterations to a total energy of -14122.6592 eV
 Calculation parallelised over 12 processes.
 Data is distributed by G-vector(6-way) and k-point(2-way)

 ************************************ Title ************************************

 ***************************** General Parameters ******************************

 output verbosity                               : normal  (1)
 write checkpoint data to                       : AlAu_cut_400.0_kpn_2x2x1.check
 type of calculation                            : single point energy
 stress calculation                             : on
 density difference calculation                 : off
 electron localisation func (ELF) calculation   : off
 Hirshfeld analysis                             : off
 polarisation (Berry phase) analysis            : off
 molecular orbital projected DOS                : off
 deltaSCF calculation                           : off
 unlimited duration calculation
 timing information                             : on
 write extra output files                       : on
 write final potential to formatted file        : off
 write final density to formatted file          : off
 write BibTeX reference list                    : on
 write OTFG pseudopotential files               : on
 write electrostatic potential file             : on
 write bands file                               : on
 checkpoint writing                             : write castep_bin only

 output         length unit                     : A
 output           mass unit                     : amu
 output           time unit                     : ps
 output         charge unit                     : e
 output           spin unit                     : hbar/2
 output         energy unit                     : eV
 output          force unit                     : eV/A
 output       velocity unit                     : A/ps
 output       pressure unit                     : GPa
 output     inv_length unit                     : 1/A
 output      frequency unit                     : cm-1
 output force constant unit                     : eV/A**2
 output         volume unit                     : A**3
 output   IR intensity unit                     : (D/A)**2/amu
 output         dipole unit                     : D
 output         efield unit                     : eV/A/e
 output        entropy unit                     : J/mol/K
 output    efield chi2 unit                     : pm/V

 wavefunctions paging                           : none
 random number generator seed                   : randomised (173153934)
 data distribution                              : optimal for this architecture

 *********************** Exchange-Correlation Parameters ***********************

 using functional                               : Perdew Burke Ernzerhof
 relativistic treatment                         : Koelling-Harmon
 DFT+D: Semi-empirical dispersion correction    : off

 ************************* Pseudopotential Parameters **************************

 pseudopotential representation                 : reciprocal space
 <beta|phi> representation                      : reciprocal space
 spin-orbit coupling                            : off

 **************************** Basis Set Parameters *****************************

 plane wave basis set cut-off                   :   400.0000   eV
 size of standard grid                          :     1.7500
 size of   fine   gmax                          :    17.9311   1/A
 finite basis set correction                    : automatic
 number of sample energies                      :          3
           sample  spacing                      :     5.0000   eV

 **************************** Electronic Parameters ****************************

 number of  electrons                           :  69.00
 net charge of system                           :  0.000
 net spin   of system                           :  1.000
 number of  up  spins                           :  35.00
 number of down spins                           :  34.00
 treating system as spin-polarized
 number of bands                                :         42

 ********************* Electronic Minimization Parameters **********************

 Method: Treating system as metallic with density mixing treatment of electrons,
         and number of  SD  steps               :          1
         and number of  CG  steps               :          4

 total energy / atom convergence tol.           : 0.1000E-04   eV
 eigen-energy convergence tolerance             : 0.1000E-05   eV
 max force / atom convergence tol.              : ignored
 convergence tolerance window                   :          3   cycles
 max. number of SCF cycles                      :        100
 number of fixed-spin iterations                :         10
 smearing scheme                                : Gaussian
 smearing width                                 : 0.2000       eV
 Fermi energy convergence tolerance             : 0.2721E-13   eV
 periodic dipole correction                     : NONE

 ************************** Density Mixing Parameters **************************

 density-mixing scheme                          : Broyden
 max. length of mixing history                  :         20
 charge density mixing amplitude                : 0.8000
   spin density mixing amplitude                :  2.000
 cut-off energy for mixing                      :  400.0       eV

 *********************** Population Analysis Parameters ************************

 Population analysis with cutoff                :  3.000       A
 Population analysis output                     : summary and pdos components

                                      Unit Cell
        Real Lattice(A)                      Reciprocal Lattice(1/A)
     5.7275650     0.0000000     0.0000000        1.097008119   0.000000000   0.000000000
     0.0000000     5.7275650     0.0000000        0.000000000   1.097008119   0.000000000
     0.0000000     0.0000000    13.7500000        0.000000000   0.000000000   0.456958931

                       Lattice parameters(A)       Cell Angles
                    a =      5.727565          alpha =   90.000000
                    b =      5.727565          beta  =   90.000000
                    c =     13.750000          gamma =   90.000000

                       Current cell volume =           451.068761       A**3
                                   density =             1.154469   AMU/A**3
                                           =             1.917041     g/cm^3

                                     Cell Contents
                         Total number of ions in cell =   13
                      Total number of species in cell =    2
                        Max number of any one species =   12

            x  Element    Atom        Fractional coordinates of atoms  x
            x            Number           u          v          w      x
            x  Al           1         0.004336  -0.001207   0.293264   x
            x  Al           2         0.513295  -0.002044   0.290058   x
            x  Al           3         0.013786   0.506699   0.289202   x
            x  Al           4         0.504736   0.495954   0.289216   x
            x  Al           5         0.252112   0.233298   0.431909   x
            x  Al           6         0.745092   0.241158   0.439325   x
            x  Al           7         0.242073   0.737671   0.443511   x
[...]
                                    Au  196.9665500

                          Electric Quadrupole Moment (Barn)
                                    Al    0.1466000 Isotope 27
                                    Au    0.5470000 Isotope197

                          Files used for pseudopotentials:
                                    Al 3|2.2|2.2|1.4|4|5|5|30:31:32U2U2
                                    Au 3|2.4|9|10|11|50U:60:51:52:43(qc=6)

                              k-Points For BZ Sampling
                       MP grid size for SCF calculation is  2  2  1
                            with an offset of   0.000  0.000  0.000
                       Number of kpoints used =             2

                               Symmetry and Constraints

                      Maximum deviation from symmetry =  0.00000         ANG

                      Number of symmetry operations   =           1
                      Number of ionic constraints     =           3
                      Point group of crystal =     1: C1, 1, 1
                      Space group of crystal =     1: P1, P 1

             Set iprint > 1 for details on symmetry rotations/translations

                         Centre of mass is constrained
             Set iprint > 1 for details of linear ionic constraints

                         Number of cell constraints= 0
                         Cell constraints are:  1 2 3 4 5 6

                         External pressure/stress (GPa)
                          0.00000   0.00000   0.00000
                                    0.00000   0.00000
                                              0.00000

Integrated Spin Density     =    0.203673E-03 hbar/2
Integrated |Spin Density|   =    0.115804E-02 hbar/2

Final energy, E             =  -15456.10066016     eV
Final free energy (E-TS)    =  -15456.25730296     eV
(energies not corrected for finite basis set)

NB est. 0K energy (E-0.5TS)      =  -15456.17898156     eV

Calculating total energy with cut-off of  395.000 eV.
------------------------------------------------------------------------ <-- SCF
SCF loop      Energy           Fermi           Energy gain       Timer   <-- SCF
                               energy          per atom          (sec)   <-- SCF
------------------------------------------------------------------------ <-- SCF
Initial  -1.54561007E+004  0.00000000E+000                        45.70  <-- SCF
      1  -1.54562580E+004  4.45173505E-001   1.21038347E-002      46.26  <-- SCF
      2  -1.54562580E+004  4.45173502E-001   9.06251316E-009      46.83  <-- SCF
      3  -1.54562580E+004  4.45413279E-001  -5.63585374E-008      47.39  <-- SCF
      4  -1.54562580E+004  4.45423712E-001  -2.42465002E-009      47.96  <-- SCF
------------------------------------------------------------------------ <-- SCF

[...]

Calculating total energy with cut-off of  400.000 eV.
------------------------------------------------------------------------ <-- SCF
SCF loop      Energy           Fermi           Energy gain       Timer   <-- SCF
                               energy          per atom          (sec)   <-- SCF
------------------------------------------------------------------------ <-- SCF
Initial  -1.54561014E+004  0.00000000E+000                        48.65  <-- SCF
      1  -1.54562587E+004  4.46024693E-001   1.21058918E-002      49.21  <-- SCF
      2  -1.54562587E+004  4.46024691E-001   1.23714501E-008      49.78  <-- SCF
      3  -1.54562587E+004  4.45846101E-001  -4.46495886E-008      50.34  <-- SCF
      4  -1.54562587E+004  4.45822870E-001  -5.38889115E-008      50.91  <-- SCF
------------------------------------------------------------------------ <-- SCF

Integrated Spin Density     =    0.133254E-04 hbar/2
Integrated |Spin Density|   =    0.963989E-04 hbar/2

Final energy, E             =  -15456.10209486     eV
Final free energy (E-TS)    =  -15456.25873840     eV
(energies not corrected for finite basis set)

NB est. 0K energy (E-0.5TS)      =  -15456.18041663     eV

 For future reference: finite basis dEtot/dlog(Ecut) =      -0.053246eV
 Total energy corrected for finite basis set =  -15456.258639 eV

 ************************** Forces **************************
 *               Cartesian components (eV/A)                *
 *                         x            y            z      *
 * Al              1     -0.04821     -0.17591      0.14782 *
 * Al              2     -0.04407     -0.36187      0.24223 *
 * Al              3     -0.41419      0.02191      0.42928 *
 * Al              4      0.34614      0.30687      0.43171 *
 * Al              5     -0.04073      0.28179      0.36965 *
 * Al              6      0.15724      0.42322     -0.10136 *
 * Al              7      0.18954      0.11744     -0.52071 *
 * Al              8     -0.05251     -0.31310      0.29287 *
 * Al              9     -0.08541      0.02086     -0.05904 *
 * Al             10      0.04033     -0.10660     -0.17866 *
 * Al             11     -0.26667     -0.31370     -0.12939 *
 * Al             12      0.29141     -0.14161     -0.05407 *
 * Au              1     -0.07287      0.24071     -0.87034 *

 ***************** Stress Tensor *****************
 *          Cartesian components (GPa)           *
 *             x             y             z     *
 *  x      0.318255     -0.007547      0.011967  *
 *  y     -0.007547      0.208944     -0.082045  *
 *  z      0.011967     -0.082045      2.318141  *
 *  Pressure:   -0.9484                          *

 Pseudo atomic calculation performed for Al 3s2 3p1

 Converged in 14 iterations to a total energy of -107.1300 eV

 Pseudo atomic calculation performed for Au 4f14 5s2 5p6 5d10 6s1

 Converged in 33 iterations to a total energy of -14122.6592 eV
Charge spilling parameter for spin component 1 = 1.15%
Charge spilling parameter for spin component 2 = 1.15%

                   Orbital Populations
     Ion    Atom   Orbital              Up        Down      Spin
     Al     1      S                    0.678     0.679    -0.000
     Al     1      Px                   0.291     0.292    -0.000
     Al     1      Py                   0.292     0.292     0.000
     Al     1      Pz                   0.223     0.223     0.000
     Al     2      S                    0.685     0.684     0.001
     Al     2      Px                   0.285     0.285    -0.000
     Al     2      Py                   0.288     0.288    -0.000
     Al     2      Pz                   0.223     0.223    -0.000
     Al     3      S                    0.686     0.686     0.000
     Al     3      Px                   0.289     0.289    -0.000
     Al     3      Py                   0.283     0.283     0.000
     Al     3      Pz                   0.223     0.222     0.000
     Al     4      S                    0.685     0.685     0.000
     Al     4      Px                   0.289     0.290    -0.000
     Al     4      Py                   0.286     0.286    -0.000
     Al     4      Pz                   0.220     0.221    -0.000
     Al     5      S                    0.581     0.580     0.001
     Al     5      Px                   0.328     0.328    -0.000
     Al     5      Py                   0.322     0.322     0.000
     Al     5      Pz                   0.301     0.302    -0.001
     Al     6      S                    0.582     0.581     0.001
     Al     6      Px                   0.320     0.319     0.000
     Al     6      Py                   0.325     0.325    -0.000
     Al     6      Pz                   0.311     0.311     0.000
     Al     7      S                    0.577     0.576     0.001
     Al     7      Px                   0.324     0.325    -0.000
     Al     7      Py                   0.320     0.320     0.000
     Al     7      Pz                   0.314     0.314    -0.000
     Al     8      S                    0.575     0.574     0.001
     Al     8      Px                   0.322     0.322     0.000
     Al     8      Py                   0.325     0.325     0.000
     Al     8      Pz                   0.290     0.290     0.000
     Al     9      S                    0.646     0.646     0.000
     Al     9      Px                   0.303     0.303     0.000
     Al     9      Py                   0.304     0.305    -0.000
     Al     9      Pz                   0.271     0.271    -0.000
     Al    10      S                    0.652     0.651     0.001
     Al    10      Px                   0.296     0.296    -0.000
     Al    10      Py                   0.297     0.297     0.000
     Al    10      Pz                   0.267     0.267    -0.000
     Al    11      S                    0.661     0.661    -0.000
     Al    11      Px                   0.292     0.291     0.000
     Al    11      Py                   0.296     0.296    -0.000
     Al    11      Pz                   0.257     0.258    -0.000
     Al    12      S                    0.651     0.650     0.001
     Al    12      Px                   0.300     0.300     0.000
     Al    12      Py                   0.304     0.304     0.000
     Al    12      Pz                   0.269     0.269     0.000
     Au     1      S                    1.000     1.000     0.000
     Au     1      Fxxx                 1.000     1.000    -0.000
     Au     1      Fyyy                 1.000     1.000     0.000
     Au     1      Fzzz                 1.000     1.000     0.000
     Au     1      Fxyz                 1.000     1.000    -0.000
     Au     1      Fz(xx-yy)            1.000     1.000    -0.000
     Au     1      Fy(zz-xx)            1.000     1.000    -0.000
     Au     1      Fx(yy-zz)            1.000     1.000    -0.000
     Au     1      Px                   1.000     1.000     0.000
     Au     1      Py                   1.000     1.000     0.000
     Au     1      Pz                   1.000     1.000    -0.000
     Au     1      Dzz                  0.987     0.987    -0.000
     Au     1      Dzy                  0.966     0.967    -0.001
     Au     1      Dzx                  0.965     0.966    -0.001
     Au     1      Dxx-yy               0.983     0.983    -0.000
     Au     1      Dxy                  0.953     0.953    -0.000
     Au     1      S                    0.537     0.537    -0.001
                           Total:      34.500    34.499     0.001

     Atomic Populations (Mulliken)
Species          Ion Spin      s       p       d       f      Total   Charge(e)   Spin(hbar/2)
  Al              1   up:     0.678   0.806   0.000   0.000   1.484     0.031       -0.000
                  1   dn:     0.679   0.806   0.000   0.000   1.485
  Al              2   up:     0.685   0.795   0.000   0.000   1.480     0.040        0.000
                  2   dn:     0.684   0.796   0.000   0.000   1.480
  Al              3   up:     0.686   0.795   0.000   0.000   1.481     0.038       -0.000
                  3   dn:     0.686   0.795   0.000   0.000   1.481
  Al              4   up:     0.685   0.795   0.000   0.000   1.480     0.039       -0.001
                  4   dn:     0.685   0.796   0.000   0.000   1.481
  Al              5   up:     0.581   0.950   0.000   0.000   1.532    -0.063        0.000
                  5   dn:     0.580   0.951   0.000   0.000   1.531
  Al              6   up:     0.582   0.956   0.000   0.000   1.538    -0.074        0.001
                  6   dn:     0.581   0.956   0.000   0.000   1.537
  Al              7   up:     0.577   0.959   0.000   0.000   1.536    -0.072        0.000
                  7   dn:     0.576   0.959   0.000   0.000   1.536
  Al              8   up:     0.575   0.937   0.000   0.000   1.512    -0.023        0.001
                  8   dn:     0.574   0.937   0.000   0.000   1.511
  Al              9   up:     0.646   0.878   0.000   0.000   1.524    -0.048       -0.000
                  9   dn:     0.646   0.879   0.000   0.000   1.524
  Al             10   up:     0.652   0.861   0.000   0.000   1.513    -0.025        0.001
                 10   dn:     0.651   0.860   0.000   0.000   1.512
  Al             11   up:     0.661   0.845   0.000   0.000   1.505    -0.011       -0.001
                 11   dn:     0.661   0.845   0.000   0.000   1.506
  Al             12   up:     0.651   0.874   0.000   0.000   1.525    -0.048        0.001
                 12   dn:     0.650   0.873   0.000   0.000   1.523
  Au              1   up:     1.536   3.000   4.854   7.000  16.390     0.217       -0.003
                  1   dn:     1.537   3.000   4.856   7.000  16.393

                 Bond                   Population        Spin       Length (A)
             Al 10 -- Au 1                   0.04        -0.00          2.57897
             Al 9  -- Au 1                   0.04        -0.00          2.60463
             Al 12 -- Au 1                  -0.00        -0.00          2.68566
             Al 7  -- Al 12                  0.13        -0.00          2.71042
             Al 7  -- Al 11                  0.11        -0.00          2.72447
             Al 1  -- Al 5                   0.05         0.00          2.72988
             Al 11 -- Au 1                  -0.04        -0.00          2.73337
             Al 2  -- Al 8                   0.06        -0.00          2.77091
             Al 9  -- Al 11                  0.47        -0.00          2.77730
             Al 6  -- Al 9                   0.11        -0.00          2.78473
             Al 10 -- Al 12                  0.44        -0.00          2.79393
             Al 2  -- Al 5                  -0.03        -0.00          2.80340
             Al 7  -- Al 9                   0.00         0.00          2.80369
             Al 1  -- Al 8                  -0.03         0.00          2.80495
             Al 6  -- Al 10                  0.07        -0.00          2.80869
             Al 6  -- Al 8                   0.18        -0.00          2.81116
             Al 3  -- Al 4                   0.61        -0.00          2.81262
             Al 1  -- Al 2                   0.58        -0.00          2.81282
             Al 2  -- Al 6                   0.04         0.00          2.81342
             Al 9  -- Al 10                  0.42        -0.00          2.81833
             Al 1  -- Al 3                   0.57        -0.00          2.81957
             Al 3  -- Al 7                   0.10        -0.00          2.82162
             Al 4  -- Al 8                   0.04        -0.00          2.82445
             Al 5  -- Al 6                   0.26        -0.00          2.82577
             Al 7  -- Al 8                   0.18        -0.00          2.83432
             Al 11 -- Al 12                  0.46        -0.00          2.84209
             Al 5  -- Al 7                   0.24        -0.00          2.84379
             Al 2  -- Al 4                   0.57        -0.00          2.85276
             Al 5  -- Al 9                   0.12        -0.00          2.85532
             Al 7  -- Al 10                 -0.03        -0.00          2.85638
             Al 1  -- Al 6                  -0.02        -0.00          2.85747
             Al 3  -- Al 5                  -0.05         0.00          2.85758
             Al 3  -- Al 8                  -0.03         0.00          2.85967
             Al 8  -- Al 11                  0.05        -0.00          2.86198
             Al 4  -- Al 5                  -0.09        -0.00          2.86467
             Al 8  -- Al 9                  -0.01        -0.00          2.86666
             Al 6  -- Al 12                  0.02        -0.00          2.87038
             Al 8  -- Al 10                 -0.01        -0.00          2.87300
             Al 8  -- Al 12                  0.02         0.00          2.87347
             Al 4  -- Al 6                   0.05         0.00          2.87837
             Al 5  -- Al 10                  0.10         0.00          2.88655
             Al 1  -- Al 7                   0.00         0.00          2.89116
             Al 5  -- Al 12                  0.03         0.00          2.92105
             Al 6  -- Al 11                  0.00         0.00          2.92580
             Al 4  -- Al 7                  -0.01         0.00          2.94636
             Al 3  -- Al 6                  -0.05        -0.00          2.99039

Writing analysis data to AlAu_cut_400.0_kpn_2x2x1.castep_bin
Initialisation time =     24.49 s
Calculation time    =     35.61 s
Finalisation time   =      0.18 s
Total time          =     60.28 s

Overall parallel efficiency rating: Mediocre (52%)

Data was distributed by:-
G-vector (6-way); efficiency rating: Mediocre (55%)
k-point (2-way); efficiency rating: Good (77%)

Parallel notes:
1) Calculation only took 60.1 s, so efficiency estimates may be inaccurate.