 Run started: Thu, 02 Sep 2021 15:16:53 +0100

 Atomic calculation performed for Cu: 1s2 2s2 2p6 3s2 3p6 3d10 4s1

 Converged in 145 iterations to an ae energy of -45030.712 eV

   | Pseudopotential Report - Date of generation  2-09-2021   |
   | Element: Cu Ionic charge: 11.00 Level of theory: PBE     |
   | Atomic Solver: Koelling-Harmon                           |
   |               Reference Electronic Structure             |
   |         Orbital         Occupation         Energy        |
   |            3d             10.000           -0.185        |
   |            4s              1.000           -0.169        |
   |                 Pseudopotential Definition               |
   |        Beta     l      e      Rc     scheme   norm       |
   |          1      0   -0.169   1.996     qc      0         |
   |          2      0    0.250   1.996     qc      0         |
   |          3      1    0.000   1.996     qc      0         |
   |          4      1    0.250   1.996     qc      0         |
   |          5      2   -0.185   1.996     qc      0         |
   |          6      2    0.250   1.996     qc      0         |
   |         loc     3    0.000   2.206     pn      0         |
   | Augmentation charge Rinner = 0.999                       |
   | Partial core correction Rc = 0.999                       |
   | "3|2.2|2.0|1.0|10|12|13|40:41:32(qc=6)"                  |
   |      Author: Chris J. Pickard, Cambridge University      |

 Pseudo atomic calculation performed for Cu 3d10 4s1

 Converged in 49 iterations to a total energy of -1676.7356 eV
 Calculation parallelised over 16 processes.
 Data is distributed by G-vector(4-way) and k-point(4-way)

 ************************************ Title ************************************

 ***************************** General Parameters ******************************

 output verbosity                               : normal  (1)
 write checkpoint data to                       : initial.check
 type of calculation                            : geometry optimization
 stress calculation                             : on
 density difference calculation                 : off
 electron localisation func (ELF) calculation   : off
 Hirshfeld analysis                             : off
 polarisation (Berry phase) analysis            : off
 molecular orbital projected DOS                : off
 deltaSCF calculation                           : off
 unlimited duration calculation
 timing information                             : on
 write extra output files                       : on
 write final potential to formatted file        : off
 write final density to formatted file          : off
 write structure in CELL formatted file         : on
 write BibTeX reference list                    : on
 write OTFG pseudopotential files               : on
 write electrostatic potential file             : on
 write bands file                               : on
 checkpoint writing                             : both castep_bin and check files

 output         length unit                     : A
 output           mass unit                     : amu
 output           time unit                     : ps
 output         charge unit                     : e
 output           spin unit                     : hbar/2
 output         energy unit                     : eV
 output          force unit                     : eV/A
 output       velocity unit                     : A/ps
 output       pressure unit                     : GPa
 output     inv_length unit                     : 1/A
 output      frequency unit                     : cm-1
 output force constant unit                     : eV/A**2
 output         volume unit                     : A**3
 output   IR intensity unit                     : (D/A)**2/amu
 output         dipole unit                     : D
 output         efield unit                     : eV/A/e
 output        entropy unit                     : J/mol/K
 output    efield chi2 unit                     : pm/V

 wavefunctions paging                           : none
 random number generator seed                   : randomised (151654032)
 data distribution                              : optimal for this architecture

 *********************** Exchange-Correlation Parameters ***********************

 using functional                               : Perdew Burke Ernzerhof
 relativistic treatment                         : Koelling-Harmon
 DFT+D: Semi-empirical dispersion correction    : off

 ************************* Pseudopotential Parameters **************************

 pseudopotential representation                 : reciprocal space
 <beta|phi> representation                      : reciprocal space
 spin-orbit coupling                            : off

 **************************** Basis Set Parameters *****************************

 plane wave basis set cut-off                   :   400.0000   eV
 size of standard grid                          :     1.7500
 size of   fine   gmax                          :    17.9311   1/A
 finite basis set correction                    : none

 **************************** Electronic Parameters ****************************

 number of  electrons                           :  352.0
 net charge of system                           :  0.000
 treating system as non-spin-polarized
 number of bands                                :        211

 ********************* Electronic Minimization Parameters **********************

 Method: Treating system as metallic with density mixing treatment of electrons,
         and number of  SD  steps               :          1
         and number of  CG  steps               :          4

 total energy / atom convergence tol.           : 0.1000E-04   eV
 eigen-energy convergence tolerance             : 0.1000E-05   eV
 max force / atom convergence tol.              : ignored
 convergence tolerance window                   :          3   cycles
 max. number of SCF cycles                      :        100
 number of fixed-spin iterations                :         10
 smearing scheme                                : Gaussian
 smearing width                                 : 0.2000       eV
 Fermi energy convergence tolerance             : 0.2721E-13   eV
 periodic dipole correction                     : NONE

 ************************** Density Mixing Parameters **************************

 density-mixing scheme                          : Broyden
 max. length of mixing history                  :         20
 charge density mixing amplitude                : 0.8000
 cut-off energy for mixing                      :  400.0       eV

 *********************** Population Analysis Parameters ************************

 Population analysis with cutoff                :  3.000       A
 Population analysis output                     : summary and pdos components

 ********************** Geometry Optimization Parameters ***********************

 optimization method                            : LBFGS
 max. no. of LBFGS updates                      : unbounded
 variable cell method                           : fixed basis quality
 max. number of steps                           :         30
 estimated bulk modulus                         :  500.0       GPa
 estimated <frequency>                          :  1668.       cm-1
 geom line minimiser                            : on
 with line minimiser tolerance                  :     0.4000
 total energy convergence tolerance             : 0.2000E-04   eV/atom
        max ionic |force| tolerance             : 0.5000E-01   eV/A
 max ionic |displacement| tolerance             : 0.1000E-02   A
   max |stress component| tolerance             : 0.1000       GPa
 convergence tolerance window                   :          2   steps
 backup results every                           :          5   steps
 write geom trajectory file                     : on

                                      Unit Cell
        Real Lattice(A)                      Reciprocal Lattice(1/A)
     7.3031241     0.0000000     0.0000000        0.860342127   0.000000000   0.000000000
     0.0000000     7.3031241     0.0000000        0.000000000   0.860342127   0.000000000
     0.0000000     0.0000000     7.3031241        0.000000000   0.000000000   0.860342127

                       Lattice parameters(A)       Cell Angles
                    a =      7.303124          alpha =   90.000000
                    b =      7.303124          beta  =   90.000000
                    c =      7.303124          gamma =   90.000000

                       Current cell volume =           389.516661       A**3
                                   density =             5.220501   AMU/A**3
                                           =             8.668845     g/cm^3

                                     Cell Contents
                         Total number of ions in cell =   32
                      Total number of species in cell =    1
                        Max number of any one species =   32

            x  Element    Atom        Fractional coordinates of atoms  x
            x            Number           u          v          w      x
            x  Cu           1         1.000000   0.000000   0.000000   x
            x  Cu           2         1.000000   0.250006   0.250006   x
            x  Cu           3         0.250006  -0.000000   0.250006   x
            x  Cu           4         0.250006   0.250006   0.000000   x
            x  Cu           5         0.000000  -0.000000   0.500000   x
            x  Cu           6         0.000000   0.250006   0.749994   x
            x  Cu           7         0.250006   0.000000   0.749994   x
            x  Cu           8         0.250006   0.250006   0.500000   x
            x  Cu           9         1.000000   0.500000   0.000000   x
            x  Cu          10         0.000000   0.749994   0.250006   x
            x  Cu          11         0.250006   0.500000   0.250006   x
            x  Cu          12         0.250006   0.749994   0.000000   x
            x  Cu          13         0.000000   0.500000   0.500000   x
            x  Cu          14         0.000000   0.749994   0.749994   x
            x  Cu          15         0.250006   0.500000   0.749994   x
            x  Cu          16         0.250006   0.749994   0.500000   x
            x  Cu          17         0.500000   0.000000  -0.000000   x
            x  Cu          18         0.500000   0.250006   0.250006   x
            x  Cu          19         0.749994  -0.000000   0.250006   x
            x  Cu          20         0.749994   0.250006   0.000000   x
            x  Cu          21         0.500000  -0.000000   0.500000   x
            x  Cu          22         0.500000   0.250006   0.749994   x
            x  Cu          23         0.749994   0.000000   0.749994   x
            x  Cu          24         0.749994   0.250006   0.500000   x
            x  Cu          25         0.500000   0.500000   0.000000   x
            x  Cu          26         0.500000   0.749994   0.250006   x
            x  Cu          27         0.749994   0.500000   0.250006   x
[...]
     Cu    11      Py                   0.165
     Cu    11      Pz                   0.165
     Cu    12      Dzz                  1.955
     Cu    12      Dzy                  1.932
     Cu    12      Dzx                  1.932
     Cu    12      Dxx-yy               1.955
     Cu    12      Dxy                  1.932
     Cu    12      S                    0.799
     Cu    12      Px                   0.165
     Cu    12      Py                   0.165
     Cu    12      Pz                   0.165
     Cu    13      Dzz                  1.955
     Cu    13      Dzy                  1.933
     Cu    13      Dzx                  1.932
     Cu    13      Dxx-yy               1.955
     Cu    13      Dxy                  1.932
     Cu    13      S                    0.800
     Cu    13      Px                   0.165
     Cu    13      Py                   0.165
     Cu    13      Pz                   0.165
     Cu    14      Dzz                  1.955
     Cu    14      Dzy                  1.932
     Cu    14      Dzx                  1.932
     Cu    14      Dxx-yy               1.955
     Cu    14      Dxy                  1.932
     Cu    14      S                    0.799
     Cu    14      Px                   0.165
     Cu    14      Py                   0.165
     Cu    14      Pz                   0.165
     Cu    15      Dzz                  1.955
     Cu    15      Dzy                  1.932
     Cu    15      Dzx                  1.932
     Cu    15      Dxx-yy               1.955
     Cu    15      Dxy                  1.932
     Cu    15      S                    0.799
     Cu    15      Px                   0.165
     Cu    15      Py                   0.165
     Cu    15      Pz                   0.165
     Cu    16      Dzz                  1.955
     Cu    16      Dzy                  1.932
     Cu    16      Dzx                  1.932
     Cu    16      Dxx-yy               1.955
     Cu    16      Dxy                  1.932
     Cu    16      S                    0.799
     Cu    16      Px                   0.165
     Cu    16      Py                   0.165
     Cu    16      Pz                   0.165
     Cu    17      Dzz                  1.955
     Cu    17      Dzy                  1.932
     Cu    17      Dzx                  1.932
     Cu    17      Dxx-yy               1.955
     Cu    17      Dxy                  1.932
     Cu    17      S                    0.799
     Cu    17      Px                   0.165
     Cu    17      Py                   0.165
     Cu    17      Pz                   0.165
     Cu    18      Dzz                  1.955
     Cu    18      Dzy                  1.932
     Cu    18      Dzx                  1.932
     Cu    18      Dxx-yy               1.955
     Cu    18      Dxy                  1.932
     Cu    18      S                    0.799
     Cu    18      Px                   0.165
     Cu    18      Py                   0.165
     Cu    18      Pz                   0.165
     Cu    19      Dzz                  1.955
     Cu    19      Dzy                  1.932
     Cu    19      Dzx                  1.932
     Cu    19      Dxx-yy               1.955
     Cu    19      Dxy                  1.932
     Cu    19      S                    0.799
     Cu    19      Px                   0.165
     Cu    19      Py                   0.165
     Cu    19      Pz                   0.165
     Cu    20      Dzz                  1.955
     Cu    20      Dzy                  1.932
     Cu    20      Dzx                  1.932
     Cu    20      Dxx-yy               1.955
     Cu    20      Dxy                  1.932
     Cu    20      S                    0.799
     Cu    20      Px                   0.165
     Cu    20      Py                   0.165
     Cu    20      Pz                   0.165
     Cu    21      Dzz                  1.955
     Cu    21      Dzy                  1.932
     Cu    21      Dzx                  1.932
     Cu    21      Dxx-yy               1.955
     Cu    21      Dxy                  1.932
     Cu    21      S                    0.799
     Cu    21      Px                   0.165
     Cu    21      Py                   0.165
     Cu    21      Pz                   0.165
     Cu    22      Dzz                  1.955
     Cu    22      Dzy                  1.932
     Cu    22      Dzx                  1.932
     Cu    22      Dxx-yy               1.955
     Cu    22      Dxy                  1.932
     Cu    22      S                    0.799
     Cu    22      Px                   0.165
     Cu    22      Py                   0.165
     Cu    22      Pz                   0.165
     Cu    23      Dzz                  1.955
     Cu    23      Dzy                  1.932
     Cu    23      Dzx                  1.932
     Cu    23      Dxx-yy               1.955
     Cu    23      Dxy                  1.932
     Cu    23      S                    0.799
     Cu    23      Px                   0.165
     Cu    23      Py                   0.165
     Cu    23      Pz                   0.165
     Cu    24      Dzz                  1.955
     Cu    24      Dzy                  1.932
     Cu    24      Dzx                  1.932
     Cu    24      Dxx-yy               1.955
     Cu    24      Dxy                  1.932
     Cu    24      S                    0.799
     Cu    24      Px                   0.165
     Cu    24      Py                   0.165
     Cu    24      Pz                   0.165
     Cu    25      Dzz                  1.955
     Cu    25      Dzy                  1.932
     Cu    25      Dzx                  1.932
     Cu    25      Dxx-yy               1.955
     Cu    25      Dxy                  1.932
     Cu    25      S                    0.799
     Cu    25      Px                   0.165
     Cu    25      Py                   0.165
     Cu    25      Pz                   0.165
     Cu    26      Dzz                  1.955
     Cu    26      Dzy                  1.932
     Cu    26      Dzx                  1.932
     Cu    26      Dxx-yy               1.955
     Cu    26      Dxy                  1.932
     Cu    26      S                    0.799
     Cu    26      Px                   0.165
     Cu    26      Py                   0.165
     Cu    26      Pz                   0.165
     Cu    27      Dzz                  1.955
     Cu    27      Dzy                  1.932
     Cu    27      Dzx                  1.932
     Cu    27      Dxx-yy               1.955
     Cu    27      Dxy                  1.932
     Cu    27      S                    0.799
     Cu    27      Px                   0.165
     Cu    27      Py                   0.165
     Cu    27      Pz                   0.165
     Cu    28      Dzz                  1.955
     Cu    28      Dzy                  1.932
     Cu    28      Dzx                  1.932
     Cu    28      Dxx-yy               1.955
     Cu    28      Dxy                  1.932
     Cu    28      S                    0.799
     Cu    28      Px                   0.165
     Cu    28      Py                   0.165
     Cu    28      Pz                   0.165
     Cu    29      Dzz                  1.955
     Cu    29      Dzy                  1.932
     Cu    29      Dzx                  1.932
     Cu    29      Dxx-yy               1.955
     Cu    29      Dxy                  1.932
     Cu    29      S                    0.799
     Cu    29      Px                   0.165
     Cu    29      Py                   0.165
     Cu    29      Pz                   0.165
     Cu    30      Dzz                  1.955
     Cu    30      Dzy                  1.932
     Cu    30      Dzx                  1.932
     Cu    30      Dxx-yy               1.955
     Cu    30      Dxy                  1.932
     Cu    30      S                    0.799
     Cu    30      Px                   0.165
     Cu    30      Py                   0.165
     Cu    30      Pz                   0.165
     Cu    31      Dzz                  1.955
     Cu    31      Dzy                  1.932
     Cu    31      Dzx                  1.932
     Cu    31      Dxx-yy               1.955
     Cu    31      Dxy                  1.932
     Cu    31      S                    0.799
     Cu    31      Px                   0.165
     Cu    31      Py                   0.165
     Cu    31      Pz                   0.165
     Cu    32      Dzz                  1.955
     Cu    32      Dzy                  1.932
     Cu    32      Dzx                  1.932
     Cu    32      Dxx-yy               1.955
     Cu    32      Dxy                  1.932
     Cu    32      S                    0.799
     Cu    32      Px                   0.165
     Cu    32      Py                   0.165
     Cu    32      Pz                   0.165
                           Total:     352.000

     Atomic Populations (Mulliken)
Species          Ion     s       p       d       f      Total   Charge (e)
  Cu              1     0.799   0.495   9.707   0.000  11.001    -0.001
  Cu              2     0.799   0.495   9.707   0.000  11.001    -0.001
  Cu              3     0.800   0.495   9.708   0.000  11.002    -0.002
  Cu              4     0.799   0.494   9.706   0.000  11.000     0.000
  Cu              5     0.799   0.494   9.707   0.000  11.001    -0.001
  Cu              6     0.799   0.494   9.706   0.000  11.000     0.000
  Cu              7     0.799   0.494   9.706   0.000  11.000     0.000
  Cu              8     0.799   0.494   9.707   0.000  11.000    -0.000
  Cu              9     0.799   0.494   9.706   0.000  11.000     0.000
  Cu             10     0.799   0.494   9.707   0.000  11.000    -0.000
  Cu             11     0.799   0.494   9.706   0.000  11.000     0.000
  Cu             12     0.799   0.494   9.706   0.000  10.999     0.001
  Cu             13     0.800   0.495   9.708   0.000  11.002    -0.002
  Cu             14     0.799   0.494   9.706   0.000  10.999     0.001
  Cu             15     0.799   0.494   9.706   0.000  10.999     0.001
  Cu             16     0.799   0.494   9.706   0.000  11.000     0.000
  Cu             17     0.799   0.495   9.707   0.000  11.001    -0.001
  Cu             18     0.799   0.494   9.707   0.000  11.000    -0.000
  Cu             19     0.799   0.494   9.707   0.000  11.000    -0.000
  Cu             20     0.799   0.494   9.706   0.000  10.999     0.001
  Cu             21     0.799   0.494   9.706   0.000  11.000    -0.000
  Cu             22     0.799   0.494   9.706   0.000  10.999     0.001
  Cu             23     0.799   0.494   9.707   0.000  11.001    -0.001
  Cu             24     0.799   0.494   9.706   0.000  11.000    -0.000
  Cu             25     0.799   0.494   9.706   0.000  10.999     0.001
  Cu             26     0.799   0.494   9.706   0.000  10.999     0.001
  Cu             27     0.799   0.494   9.706   0.000  11.000     0.000
  Cu             28     0.799   0.494   9.705   0.000  10.998     0.002
  Cu             29     0.799   0.494   9.707   0.000  11.000    -0.000
  Cu             30     0.799   0.494   9.705   0.000  10.998     0.002
  Cu             31     0.799   0.494   9.706   0.000  11.000     0.000
  Cu             32     0.799   0.494   9.706   0.000  11.000     0.000

                 Bond                   Population      Length (A)
             Cu 16 -- Cu 26                  0.26        2.58198
             Cu 8  -- Cu 18                  0.26        2.58198
             Cu 11 -- Cu 18                  0.26        2.58198
             Cu 16 -- Cu 29                  0.26        2.58198
             Cu 8  -- Cu 29                  0.26        2.58198
             Cu 11 -- Cu 29                  0.26        2.58198
             Cu 8  -- Cu 22                  0.26        2.58198
             Cu 7  -- Cu 21                  0.26        2.58198
             Cu 26 -- Cu 29                  0.26        2.58198
             Cu 11 -- Cu 26                  0.26        2.58198
             Cu 16 -- Cu 30                  0.26        2.58198
             Cu 15 -- Cu 22                  0.26        2.58198
             Cu 4  -- Cu 25                  0.26        2.58198
             Cu 10 -- Cu 13                  0.26        2.58198
             Cu 15 -- Cu 29                  0.26        2.58198
             Cu 18 -- Cu 29                  0.26        2.58198
             Cu 15 -- Cu 30                  0.26        2.58198
             Cu 27 -- Cu 32                  0.26        2.58198
             Cu 11 -- Cu 16                  0.26        2.58198
             Cu 8  -- Cu 11                  0.26        2.58198
             Cu 24 -- Cu 31                  0.26        2.58198
             Cu 12 -- Cu 25                  0.26        2.58198
             Cu 2  -- Cu 13                  0.26        2.58198
             Cu 24 -- Cu 27                  0.26        2.58198
             Cu 8  -- Cu 15                  0.26        2.58198
             Cu 3  -- Cu 21                  0.26        2.58198
             Cu 31 -- Cu 32                  0.26        2.58198
             Cu 26 -- Cu 32                  0.26        2.58198
             Cu 29 -- Cu 30                  0.26        2.58199
             Cu 21 -- Cu 23                  0.26        2.58199
             Cu 29 -- Cu 32                  0.26        2.58199
             Cu 15 -- Cu 16                  0.26        2.58199
             Cu 30 -- Cu 32                  0.26        2.58199
             Cu 26 -- Cu 27                  0.26        2.58199
             Cu 22 -- Cu 24                  0.26        2.58199
             Cu 27 -- Cu 29                  0.26        2.58199
             Cu 24 -- Cu 29                  0.26        2.58199
             Cu 18 -- Cu 24                  0.26        2.58199
             Cu 18 -- Cu 27                  0.26        2.58199
             Cu 22 -- Cu 29                  0.26        2.58199
             Cu 22 -- Cu 31                  0.26        2.58199
             Cu 29 -- Cu 31                  0.26        2.58199
             Cu 30 -- Cu 31                  0.26        2.58199
             Cu 13 -- Cu 14                  0.26        2.58199
             Cu 20 -- Cu 25                  0.26        2.58199
             Cu 19 -- Cu 21                  0.26        2.58199
             Cu 6  -- Cu 13                  0.26        2.58199
             Cu 25 -- Cu 28                  0.26        2.58199
             Cu 7  -- Cu 17                  0.26        2.58204
             Cu 7  -- Cu 22                  0.26        2.58204
             Cu 11 -- Cu 13                  0.26        2.58204
             Cu 2  -- Cu 9                   0.26        2.58204
             Cu 2  -- Cu 11                  0.26        2.58204
             Cu 10 -- Cu 11                  0.26        2.58204
             Cu 4  -- Cu 17                  0.26        2.58204
             Cu 11 -- Cu 25                  0.26        2.58204
             Cu 7  -- Cu 30                  0.26        2.58204
             Cu 18 -- Cu 25                  0.26        2.58204
             Cu 4  -- Cu 18                  0.26        2.58204
             Cu 16 -- Cu 21                  0.26        2.58204
[...]
             Cu 6  -- Cu 20                  0.26        2.58210
             Cu 1  -- Cu 28                  0.26        2.58210
             Cu 2  -- Cu 20                  0.26        2.58210
             Cu 10 -- Cu 28                  0.26        2.58210
             Cu 1  -- Cu 19                  0.26        2.58210
             Cu 14 -- Cu 28                  0.26        2.58210
             Cu 17 -- Cu 18                  0.26        2.58210
             Cu 14 -- Cu 23                  0.26        2.58210
             Cu 1  -- Cu 23                  0.26        2.58210
             Cu 10 -- Cu 19                  0.26        2.58210
             Cu 5  -- Cu 32                  0.26        2.58210
             Cu 2  -- Cu 19                  0.26        2.58210
             Cu 5  -- Cu 24                  0.26        2.58210
             Cu 17 -- Cu 26                  0.26        2.58211
             Cu 9  -- Cu 31                  0.26        2.58211

Writing analysis data to initial.castep_bin

Writing model to initial.check

 A BibTeX formatted list of references used in this run has been written to
 initial.bib

Initialisation time =      7.82 s
Calculation time    =     97.80 s
Finalisation time   =      0.41 s
Total time          =    106.03 s

Overall parallel efficiency rating: Good (74%)

Data was distributed by:-
G-vector (4-way); efficiency rating: Good (76%)
k-point (4-way); efficiency rating: Excellent (92%)

Parallel notes:
1) Calculation only took 105.6 s, so efficiency estimates may be inaccurate.