 Run started: Thu, 02 Sep 2021 15:48:35 +0100

 Atomic calculation performed for Cu: 1s2 2s2 2p6 3s2 3p6 3d10 4s1

 Converged in 145 iterations to an ae energy of -45030.712 eV

   | Pseudopotential Report - Date of generation  2-09-2021   |
   | Element: Cu Ionic charge: 11.00 Level of theory: PBE     |
   | Atomic Solver: Koelling-Harmon                           |
   |               Reference Electronic Structure             |
   |         Orbital         Occupation         Energy        |
   |            3d             10.000           -0.185        |
   |            4s              1.000           -0.169        |
   |                 Pseudopotential Definition               |
   |        Beta     l      e      Rc     scheme   norm       |
   |          1      0   -0.169   1.996     qc      0         |
   |          2      0    0.250   1.996     qc      0         |
   |          3      1    0.000   1.996     qc      0         |
   |          4      1    0.250   1.996     qc      0         |
   |          5      2   -0.185   1.996     qc      0         |
   |          6      2    0.250   1.996     qc      0         |
   |         loc     3    0.000   2.206     pn      0         |
   | Augmentation charge Rinner = 0.999                       |
   | Partial core correction Rc = 0.999                       |
   | "3|2.2|2.0|1.0|10|12|13|40:41:32(qc=6)"                  |
   |      Author: Chris J. Pickard, Cambridge University      |

 Pseudo atomic calculation performed for Cu 3d10 4s1

 Converged in 49 iterations to a total energy of -1676.7355 eV
 Calculation parallelised over 16 processes.
 Data is distributed by G-vector(4-way) and k-point(4-way)

 ************************************ Title ************************************

 ***************************** General Parameters ******************************

 output verbosity                               : normal  (1)
 write checkpoint data to                       : final.check
 type of calculation                            : geometry optimization
 stress calculation                             : on
 density difference calculation                 : off
 electron localisation func (ELF) calculation   : off
 Hirshfeld analysis                             : off
 polarisation (Berry phase) analysis            : off
 molecular orbital projected DOS                : off
 deltaSCF calculation                           : off
 unlimited duration calculation
 timing information                             : on
 write extra output files                       : on
 write final potential to formatted file        : off
 write final density to formatted file          : off
 write structure in CELL formatted file         : on
 write BibTeX reference list                    : on
 write OTFG pseudopotential files               : on
 write electrostatic potential file             : on
 write bands file                               : on
 checkpoint writing                             : both castep_bin and check files

 output         length unit                     : A
 output           mass unit                     : amu
 output           time unit                     : ps
 output         charge unit                     : e
 output           spin unit                     : hbar/2
 output         energy unit                     : eV
 output          force unit                     : eV/A
 output       velocity unit                     : A/ps
 output       pressure unit                     : GPa
 output     inv_length unit                     : 1/A
 output      frequency unit                     : cm-1
 output force constant unit                     : eV/A**2
 output         volume unit                     : A**3
 output   IR intensity unit                     : (D/A)**2/amu
 output         dipole unit                     : D
 output         efield unit                     : eV/A/e
 output        entropy unit                     : J/mol/K
 output    efield chi2 unit                     : pm/V

 wavefunctions paging                           : none
 random number generator seed                   : randomised (154835834)
 data distribution                              : optimal for this architecture

 *********************** Exchange-Correlation Parameters ***********************

 using functional                               : Perdew Burke Ernzerhof
 relativistic treatment                         : Koelling-Harmon
 DFT+D: Semi-empirical dispersion correction    : off

 ************************* Pseudopotential Parameters **************************

 pseudopotential representation                 : reciprocal space
 <beta|phi> representation                      : reciprocal space
 spin-orbit coupling                            : off

 **************************** Basis Set Parameters *****************************

 plane wave basis set cut-off                   :   400.0000   eV
 size of standard grid                          :     1.7500
 size of   fine   gmax                          :    17.9311   1/A
 finite basis set correction                    : none

 **************************** Electronic Parameters ****************************

 number of  electrons                           :  341.0
 net charge of system                           :  0.000
 net spin   of system                           :  1.000
 number of  up  spins                           :  171.0
 number of down spins                           :  170.0
 treating system as spin-polarized
 number of bands                                :        205

 ********************* Electronic Minimization Parameters **********************

 Method: Treating system as metallic with density mixing treatment of electrons,
         and number of  SD  steps               :          1
         and number of  CG  steps               :          4

 total energy / atom convergence tol.           : 0.1000E-04   eV
 eigen-energy convergence tolerance             : 0.1000E-05   eV
 max force / atom convergence tol.              : ignored
 convergence tolerance window                   :          3   cycles
 max. number of SCF cycles                      :        100
 number of fixed-spin iterations                :         10
 smearing scheme                                : Gaussian
 smearing width                                 : 0.2000       eV
 Fermi energy convergence tolerance             : 0.2721E-13   eV
 periodic dipole correction                     : NONE

 ************************** Density Mixing Parameters **************************

 density-mixing scheme                          : Broyden
 max. length of mixing history                  :         20
 charge density mixing amplitude                : 0.8000
   spin density mixing amplitude                :  2.000
 cut-off energy for mixing                      :  400.0       eV

 *********************** Population Analysis Parameters ************************

 Population analysis with cutoff                :  3.000       A
 Population analysis output                     : summary and pdos components

 ********************** Geometry Optimization Parameters ***********************

 optimization method                            : LBFGS
 max. no. of LBFGS updates                      : unbounded
 variable cell method                           : fixed basis quality
 max. number of steps                           :         30
 estimated bulk modulus                         :  500.0       GPa
 estimated <frequency>                          :  1668.       cm-1
 geom line minimiser                            : on
 with line minimiser tolerance                  :     0.4000
  with spin fully able to relax for all steps
 total energy convergence tolerance             : 0.2000E-04   eV/atom
        max ionic |force| tolerance             : 0.5000E-01   eV/A
 max ionic |displacement| tolerance             : 0.1000E-02   A
   max |stress component| tolerance             : 0.1000       GPa
 convergence tolerance window                   :          2   steps
 backup results every                           :          5   steps
 write geom trajectory file                     : on

                                      Unit Cell
        Real Lattice(A)                      Reciprocal Lattice(1/A)
     7.3031241     0.0000000     0.0000000        0.860342127   0.000000000   0.000000000
     0.0000000     7.3031241     0.0000000        0.000000000   0.860342127   0.000000000
     0.0000000     0.0000000     7.3031241        0.000000000   0.000000000   0.860342127

                       Lattice parameters(A)       Cell Angles
                    a =      7.303124          alpha =   90.000000
                    b =      7.303124          beta  =   90.000000
                    c =      7.303124          gamma =   90.000000

                       Current cell volume =           389.516661       A**3
                                   density =             5.057360   AMU/A**3
                                           =             8.397944     g/cm^3

                                     Cell Contents
                         Total number of ions in cell =   31
                      Total number of species in cell =    1
                        Max number of any one species =   31

            x  Element    Atom        Fractional coordinates of atoms  x
            x            Number           u          v          w      x
            x  Cu           1         0.000294   0.000294   0.000000   x
            x  Cu           2         0.001518   0.250000   0.251518   x
            x  Cu           3         0.250000   0.001518   0.251518   x
            x  Cu           4         0.250000   0.250000   1.000000   x
            x  Cu           5         0.001518   0.001518   0.500000   x
            x  Cu           6         0.001518   0.250000   0.748482   x
            x  Cu           7         0.250000   0.001518   0.748482   x
            x  Cu           8         0.498482   0.498482   0.500000   x
            x  Cu           9         0.000294   0.499706   0.000000   x
            x  Cu          10         0.000294   0.750000   0.250294   x
            x  Cu          11         0.250000   0.498482   0.251518   x
            x  Cu          12         0.250000   0.750000   0.000000   x
            x  Cu          13         0.001518   0.498482   0.500000   x
            x  Cu          14         0.000294   0.750000   0.749706   x
            x  Cu          15         0.250000   0.498482   0.748482   x
            x  Cu          16         0.250000   0.750000   0.500000   x
            x  Cu          17         0.499706   0.000294   0.000000   x
            x  Cu          18         0.498482   0.250000   0.251518   x
            x  Cu          19         0.750000   0.000294   0.250294   x
            x  Cu          20         0.750000   0.250000   1.000000   x
            x  Cu          21         0.498482   0.001518   0.500000   x
            x  Cu          22         0.498482   0.250000   0.748482   x
            x  Cu          23         0.750000   0.000294   0.749706   x
            x  Cu          24         0.750000   0.250000   0.500000   x
[...]
     Cu    23      S                    0.393     0.393     0.000
     Cu    23      Px                   0.077     0.077     0.000
     Cu    23      Py                   0.082     0.082    -0.000
     Cu    23      Pz                   0.082     0.082     0.000
     Cu    24      Dzz                  0.980     0.980     0.000
     Cu    24      Dzy                  0.965     0.965     0.000
     Cu    24      Dzx                  0.967     0.967    -0.000
     Cu    24      Dxx-yy               0.975     0.975     0.000
     Cu    24      Dxy                  0.967     0.967    -0.000
     Cu    24      S                    0.414     0.414     0.000
     Cu    24      Px                   0.125     0.125     0.000
     Cu    24      Py                   0.080     0.080     0.000
     Cu    24      Pz                   0.080     0.080     0.000
     Cu    25      Dzz                  0.978     0.978    -0.000
     Cu    25      Dzy                  0.966     0.966    -0.000
     Cu    25      Dzx                  0.966     0.966    -0.000
     Cu    25      Dxx-yy               0.978     0.978     0.000
     Cu    25      Dxy                  0.966     0.966    -0.000
     Cu    25      S                    0.393     0.393     0.000
     Cu    25      Px                   0.082     0.082    -0.000
     Cu    25      Py                   0.082     0.082    -0.000
     Cu    25      Pz                   0.077     0.077     0.000
     Cu    26      Dzz                  0.978     0.978    -0.000
     Cu    26      Dzy                  0.966     0.966     0.000
     Cu    26      Dzx                  0.966     0.966    -0.000
     Cu    26      Dxx-yy               0.978     0.978     0.000
     Cu    26      Dxy                  0.966     0.966     0.000
     Cu    26      S                    0.393     0.393     0.000
     Cu    26      Px                   0.082     0.082    -0.000
     Cu    26      Py                   0.077     0.077     0.000
     Cu    26      Pz                   0.082     0.082     0.000
     Cu    27      Dzz                  0.978     0.978     0.000
     Cu    27      Dzy                  0.966     0.966     0.000
     Cu    27      Dzx                  0.966     0.966    -0.000
     Cu    27      Dxx-yy               0.978     0.978     0.000
     Cu    27      Dxy                  0.966     0.966    -0.000
     Cu    27      S                    0.393     0.393     0.000
     Cu    27      Px                   0.077     0.077     0.000
     Cu    27      Py                   0.082     0.082     0.000
     Cu    27      Pz                   0.082     0.082    -0.000
     Cu    28      Dzz                  0.979     0.979     0.000
     Cu    28      Dzy                  0.967     0.967    -0.000
     Cu    28      Dzx                  0.967     0.967    -0.000
     Cu    28      Dxx-yy               0.979     0.979    -0.000
     Cu    28      Dxy                  0.967     0.967    -0.000
     Cu    28      S                    0.381     0.381     0.000
     Cu    28      Px                   0.084     0.084     0.000
     Cu    28      Py                   0.084     0.084    -0.000
     Cu    28      Pz                   0.084     0.084     0.000
     Cu    29      Dzz                  0.978     0.978    -0.000
     Cu    29      Dzy                  0.966     0.966    -0.000
     Cu    29      Dzx                  0.966     0.966    -0.000
     Cu    29      Dxx-yy               0.978     0.978     0.000
     Cu    29      Dxy                  0.966     0.966    -0.000
     Cu    29      S                    0.393     0.393     0.000
     Cu    29      Px                   0.082     0.082     0.000
     Cu    29      Py                   0.077     0.077     0.000
     Cu    29      Pz                   0.082     0.082     0.000
     Cu    30      Dzz                  0.978     0.978     0.000
     Cu    30      Dzy                  0.966     0.966     0.000
     Cu    30      Dzx                  0.966     0.966    -0.000
     Cu    30      Dxx-yy               0.978     0.978     0.000
     Cu    30      Dxy                  0.966     0.966    -0.000
     Cu    30      S                    0.393     0.393     0.000
     Cu    30      Px                   0.077     0.077     0.000
     Cu    30      Py                   0.081     0.081     0.000
     Cu    30      Pz                   0.082     0.082     0.000
     Cu    31      Dzz                  0.978     0.978     0.000
     Cu    31      Dzy                  0.965     0.965    -0.000
     Cu    31      Dzx                  0.965     0.965     0.000
     Cu    31      Dxx-yy               0.978     0.978     0.000
     Cu    31      Dxy                  0.968     0.968    -0.000
     Cu    31      S                    0.393     0.393     0.000
     Cu    31      Px                   0.067     0.067     0.000
     Cu    31      Py                   0.067     0.067    -0.000
     Cu    31      Pz                   0.078     0.078     0.000
                           Total:     170.500   170.500     0.000

     Atomic Populations (Mulliken)
Species          Ion Spin      s       p       d       f      Total   Charge(e)   Spin(hbar/2)
  Cu              1   up:     0.393   0.241   4.853   0.000   5.487     0.027       -0.000
                  1   dn:     0.393   0.241   4.853   0.000   5.487
  Cu              2   up:     0.406   0.247   4.859   0.000   5.512    -0.023        0.000
                  2   dn:     0.406   0.247   4.859   0.000   5.512
  Cu              3   up:     0.406   0.247   4.859   0.000   5.512    -0.023       -0.000
                  3   dn:     0.406   0.247   4.859   0.000   5.512
  Cu              4   up:     0.414   0.285   4.853   0.000   5.552    -0.105        0.000
                  4   dn:     0.414   0.285   4.853   0.000   5.552
  Cu              5   up:     0.406   0.247   4.859   0.000   5.512    -0.023       -0.000
                  5   dn:     0.406   0.247   4.859   0.000   5.512
  Cu              6   up:     0.406   0.247   4.859   0.000   5.512    -0.023       -0.000
                  6   dn:     0.406   0.247   4.859   0.000   5.512
  Cu              7   up:     0.406   0.247   4.859   0.000   5.512    -0.023        0.000
                  7   dn:     0.406   0.247   4.859   0.000   5.512
  Cu              8   up:     0.406   0.246   4.859   0.000   5.511    -0.023        0.000
                  8   dn:     0.406   0.246   4.859   0.000   5.511
  Cu              9   up:     0.393   0.241   4.853   0.000   5.486     0.027       -0.000
                  9   dn:     0.393   0.241   4.853   0.000   5.486
  Cu             10   up:     0.393   0.241   4.853   0.000   5.486     0.027       -0.000
                 10   dn:     0.393   0.241   4.853   0.000   5.486
  Cu             11   up:     0.406   0.246   4.859   0.000   5.512    -0.023       -0.000
                 11   dn:     0.406   0.246   4.859   0.000   5.512
  Cu             12   up:     0.393   0.212   4.854   0.000   5.459     0.082        0.000
                 12   dn:     0.393   0.212   4.854   0.000   5.459
  Cu             13   up:     0.406   0.246   4.859   0.000   5.512    -0.023        0.000
                 13   dn:     0.406   0.246   4.859   0.000   5.512
  Cu             14   up:     0.393   0.241   4.853   0.000   5.486     0.027       -0.000
                 14   dn:     0.393   0.241   4.853   0.000   5.486
  Cu             15   up:     0.406   0.246   4.859   0.000   5.512    -0.023        0.000
                 15   dn:     0.406   0.246   4.859   0.000   5.512
  Cu             16   up:     0.415   0.284   4.853   0.000   5.552    -0.104       -0.000
                 16   dn:     0.414   0.284   4.853   0.000   5.552
  Cu             17   up:     0.393   0.241   4.853   0.000   5.486     0.027        0.000
                 17   dn:     0.393   0.241   4.853   0.000   5.486
  Cu             18   up:     0.406   0.247   4.859   0.000   5.512    -0.023       -0.000
                 18   dn:     0.406   0.247   4.859   0.000   5.512
  Cu             19   up:     0.393   0.241   4.853   0.000   5.486     0.027       -0.000
                 19   dn:     0.393   0.241   4.853   0.000   5.486
  Cu             20   up:     0.393   0.212   4.854   0.000   5.459     0.082       -0.000
                 20   dn:     0.393   0.212   4.854   0.000   5.459
  Cu             21   up:     0.406   0.246   4.859   0.000   5.512    -0.023       -0.000
                 21   dn:     0.406   0.246   4.859   0.000   5.512
  Cu             22   up:     0.406   0.246   4.859   0.000   5.512    -0.023        0.000
                 22   dn:     0.406   0.246   4.859   0.000   5.512
  Cu             23   up:     0.393   0.241   4.853   0.000   5.486     0.027       -0.000
                 23   dn:     0.393   0.241   4.853   0.000   5.486
  Cu             24   up:     0.414   0.285   4.853   0.000   5.552    -0.104        0.000
                 24   dn:     0.414   0.285   4.853   0.000   5.552
  Cu             25   up:     0.393   0.240   4.853   0.000   5.486     0.027       -0.000
                 25   dn:     0.393   0.240   4.853   0.000   5.486
  Cu             26   up:     0.393   0.240   4.853   0.000   5.486     0.028        0.000
                 26   dn:     0.393   0.240   4.853   0.000   5.486
  Cu             27   up:     0.393   0.240   4.853   0.000   5.486     0.028        0.000
                 27   dn:     0.393   0.240   4.853   0.000   5.486
  Cu             28   up:     0.381   0.252   4.858   0.000   5.492     0.016       -0.000
                 28   dn:     0.381   0.252   4.859   0.000   5.492
  Cu             29   up:     0.393   0.240   4.853   0.000   5.486     0.028        0.000
                 29   dn:     0.393   0.240   4.853   0.000   5.486
  Cu             30   up:     0.393   0.240   4.853   0.000   5.486     0.028        0.000
                 30   dn:     0.393   0.240   4.853   0.000   5.486
  Cu             31   up:     0.393   0.212   4.854   0.000   5.459     0.083        0.000
                 31   dn:     0.393   0.212   4.854   0.000   5.459

                 Bond                   Population        Spin       Length (A)
             Cu 8  -- Cu 15                  0.29        -0.00          2.56933
             Cu 7  -- Cu 21                  0.29         0.00          2.56936
             Cu 6  -- Cu 13                  0.29         0.00          2.56942
             Cu 3  -- Cu 21                  0.29        -0.00          2.56945
             Cu 11 -- Cu 13                  0.29         0.00          2.56945
             Cu 2  -- Cu 13                  0.29        -0.00          2.56947
             Cu 13 -- Cu 15                  0.29         0.00          2.56949
             Cu 8  -- Cu 11                  0.29        -0.00          2.56951
             Cu 8  -- Cu 22                  0.29        -0.00          2.56952
             Cu 2  -- Cu 11                  0.29         0.00          2.56952
             Cu 3  -- Cu 5                   0.29        -0.00          2.56958
             Cu 11 -- Cu 18                  0.29         0.00          2.56964
             Cu 3  -- Cu 18                  0.29         0.00          2.56967
             Cu 2  -- Cu 5                   0.29        -0.00          2.56970
             Cu 5  -- Cu 7                   0.29        -0.00          2.56972
             Cu 8  -- Cu 18                  0.29        -0.00          2.56973
             Cu 18 -- Cu 21                  0.29         0.00          2.56975
             Cu 21 -- Cu 22                  0.29         0.00          2.56977
             Cu 15 -- Cu 22                  0.29        -0.00          2.56983
             Cu 6  -- Cu 15                  0.29         0.00          2.56986
             Cu 5  -- Cu 6                   0.29         0.00          2.56989
             Cu 2  -- Cu 3                   0.29        -0.00          2.56989
             Cu 7  -- Cu 22                  0.29         0.00          2.56993
             Cu 6  -- Cu 7                   0.29        -0.00          2.57032
             Cu 16 -- Cu 26                  0.24         0.00          2.57109
             Cu 16 -- Cu 29                  0.24         0.00          2.57118
             Cu 24 -- Cu 27                  0.24         0.00          2.57120
             Cu 24 -- Cu 30                  0.24         0.00          2.57122
             Cu 4  -- Cu 25                  0.24        -0.00          2.57134
             Cu 4  -- Cu 9                   0.24         0.00          2.57163
             Cu 10 -- Cu 16                  0.24         0.00          2.57166
             Cu 14 -- Cu 16                  0.24        -0.00          2.57175
             Cu 4  -- Cu 17                  0.24         0.00          2.57176
             Cu 19 -- Cu 24                  0.24         0.00          2.57177
             Cu 23 -- Cu 24                  0.24         0.00          2.57178
             Cu 1  -- Cu 4                   0.24         0.00          2.57204
             Cu 29 -- Cu 31                  0.26         0.00          2.58139
             Cu 30 -- Cu 31                  0.26         0.00          2.58146
             Cu 22 -- Cu 24                  0.29        -0.00          2.58159
             Cu 26 -- Cu 31                  0.26         0.00          2.58162
             Cu 15 -- Cu 16                  0.29         0.00          2.58165
             Cu 20 -- Cu 25                  0.26         0.00          2.58168
             Cu 12 -- Cu 25                  0.26         0.00          2.58170
             Cu 27 -- Cu 31                  0.26         0.00          2.58171
             Cu 8  -- Cu 16                  0.29         0.00          2.58173
             Cu 11 -- Cu 16                  0.29         0.00          2.58175
             Cu 18 -- Cu 24                  0.29         0.00          2.58176
             Cu 8  -- Cu 24                  0.29        -0.00          2.58184
             Cu 7  -- Cu 16                  0.29        -0.00          2.58185
             Cu 16 -- Cu 21                  0.29         0.00          2.58188
             Cu 3  -- Cu 16                  0.29        -0.00          2.58195
             Cu 6  -- Cu 24                  0.29         0.00          2.58198
             Cu 9  -- Cu 12                  0.26         0.00          2.58198
             Cu 9  -- Cu 20                  0.26         0.00          2.58200
             Cu 20 -- Cu 30                  0.26         0.00          2.58201
             Cu 23 -- Cu 31                  0.26        -0.00          2.58204
             Cu 20 -- Cu 27                  0.26         0.00          2.58208
             Cu 13 -- Cu 24                  0.29         0.00          2.58209
             Cu 13 -- Cu 16                  0.29         0.00          2.58212
             Cu 14 -- Cu 31                  0.26        -0.00          2.58213
[...]
             Cu 1  -- Cu 14                  0.25        -0.00          2.59296
             Cu 14 -- Cu 23                  0.25         0.00          2.59297
             Cu 10 -- Cu 19                  0.25         0.00          2.59298
             Cu 8  -- Cu 31                  0.24         0.00          2.59350
             Cu 20 -- Cu 22                  0.24         0.00          2.59402
             Cu 12 -- Cu 15                  0.24        -0.00          2.59414
             Cu 21 -- Cu 31                  0.24        -0.00          2.59421
             Cu 18 -- Cu 20                  0.24        -0.00          2.59432
             Cu 11 -- Cu 12                  0.24         0.00          2.59441
             Cu 13 -- Cu 31                  0.24         0.00          2.59443
             Cu 6  -- Cu 20                  0.24        -0.00          2.59450
             Cu 7  -- Cu 12                  0.24         0.00          2.59471
             Cu 2  -- Cu 20                  0.24         0.00          2.59491
             Cu 3  -- Cu 12                  0.24        -0.00          2.59493
             Cu 5  -- Cu 31                  0.24         0.00          2.59508

Writing analysis data to final.castep_bin

Writing model to final.check

 A BibTeX formatted list of references used in this run has been written to
 final.bib

Initialisation time =      6.38 s
Calculation time    =    354.70 s
Finalisation time   =      2.23 s
Total time          =    363.32 s

Overall parallel efficiency rating: Good (72%)

Data was distributed by:-
G-vector (4-way); efficiency rating: Good (73%)
k-point (4-way); efficiency rating: Excellent (97%)

Parallel notes:
1) Calculation only took 361.1 s, so efficiency estimates may be inaccurate.