 Compiled for linux_x86_64_ifort on Wed, 11 Aug 2021 15:16:06 +0100
 from code version
 b9537cc+  new-neb-implementation  Wed Aug 11 15:07:38 2021 +0100
 Compiler: Intel Fortran 18.0.3.222; Optimisation: fast
 MATHLIBS: Intel MKL(2018.0.3) (LAPACK version 3.7.0)
 FFT Lib : default
 Fundamental constants values: CODATA 2014

 Run started: Thu, 12 Aug 2021 17:29:22 +0100

 Atomic calculation performed for Al: 1s2 2s2 2p6 3s2 3p1

 Converged in 54 iterations to an ae energy of -6603.783 eV

   | Pseudopotential Report - Date of generation 12-08-2021   |
   | Element: Al Ionic charge:  3.00 Level of theory: PBE     |
   | Atomic Solver: Koelling-Harmon                           |
   |               Reference Electronic Structure             |
   |         Orbital         Occupation         Energy        |
   |            3s              2.000           -0.285        |
   |            3p              1.000           -0.100        |
   |                 Pseudopotential Definition               |
   |        Beta     l      e      Rc     scheme   norm       |
   |          1      0   -0.285   2.192     qc      0         |
   |          2      0    0.250   2.192     qc      0         |
   |          3      1   -0.100   2.192     qc      0         |
   |          4      1    0.250   2.192     qc      0         |
   |          5      2    0.000   2.000     qc      0         |
   |          6      2    0.250   2.000     qc      0         |
   |         loc     3    0.000   2.192     pn      0         |
   | Augmentation charge Rinner = 1.398                       |
   | Partial core correction Rc = 1.398                       |
   | "3|2.2|2.2|1.4|4|5|5|30:31:32U2U2"                       |
   |      Author: Chris J. Pickard, Cambridge University      |

 Atomic calculation performed for Au:

 Converged in 94 iterations to an ae energy of -517336.889 eV

   | Pseudopotential Report - Date of generation 12-08-2021   |
   | Element: Au Ionic charge: 33.00 Level of theory: PBE     |
   | Atomic Solver: Koelling-Harmon                           |
   |               Reference Electronic Structure             |
   |         Orbital         Occupation         Energy        |
   |            5s              2.000           -3.982        |
   |            4f             14.000           -2.981        |
   |            5p              6.000           -2.197        |
   |            5d             10.000           -0.253        |
   |            6s              1.000           -0.212        |
   |                 Pseudopotential Definition               |
   |        Beta     l      e      Rc     scheme   norm       |
   |          1      0   -3.982   2.392     qc      0         |
   |          2      0   -0.212   2.392     qc      0         |
   |          3      0    0.250   2.392     qc      0         |
   |          4      1   -2.197   2.392     qc      0         |
   |          5      1    0.250   2.392     qc      0         |
   |          6      2   -0.253   2.392     qc      0         |
   |          7      2    0.250   2.392     qc      0         |
   |          8      3   -2.981   2.392     qc      0         |
   |          9      3    0.250   2.392     qc      0         |
   |         loc     3    0.000   2.392     pn      0         |
   | Augmentation charge Rinner = 1.686                       |
   | Partial core correction Rc = 1.686                       |
   | "3|2.4|9|10|11|50U:60:51:52:43(qc=6)"                    |
   |      Author: Chris J. Pickard, Cambridge University      |

 Pseudo atomic calculation performed for Al 3s2 3p1

 Converged in 14 iterations to a total energy of -107.1300 eV

 Pseudo atomic calculation performed for Au 4f14 5s2 5p6 5d10 6s1

 Converged in 33 iterations to a total energy of -14122.6601 eV
 Calculation parallelised over 16 processes.
 Data is distributed by k-point(16-way)

 ************************************ Title ************************************

 ***************************** General Parameters ******************************

 output verbosity                               : normal  (1)
 write checkpoint data to                       : AlAu.check
 type of calculation                            : geometry optimization
 stress calculation                             : on
 density difference calculation                 : off
 electron localisation func (ELF) calculation   : off
 Hirshfeld analysis                             : off
 polarisation (Berry phase) analysis            : off
 molecular orbital projected DOS                : off
 deltaSCF calculation                           : off
 unlimited duration calculation
 timing information                             : on
 write extra output files                       : on
 write final potential to formatted file        : off
 write final density to formatted file          : off
 write structure in CELL formatted file         : on
 write BibTeX reference list                    : on
 write OTFG pseudopotential files               : on
 write electrostatic potential file             : on
 write bands file                               : on
 checkpoint writing                             : both castep_bin and check files

 output         length unit                     : A
 output           mass unit                     : amu
 output           time unit                     : ps
 output         charge unit                     : e
 output           spin unit                     : hbar/2
 output         energy unit                     : eV
 output          force unit                     : eV/A
 output       velocity unit                     : A/ps
 output       pressure unit                     : GPa
 output     inv_length unit                     : 1/A
 output      frequency unit                     : cm-1
 output force constant unit                     : eV/A**2
 output         volume unit                     : A**3
 output   IR intensity unit                     : (D/A)**2/amu
 output         dipole unit                     : D
 output         efield unit                     : eV/A/e
 output        entropy unit                     : J/mol/K
 output    efield chi2 unit                     : pm/V

 wavefunctions paging                           : none
 random number generator seed                   : randomised (172922555)
 data distribution                              : optimal for this architecture

 *********************** Exchange-Correlation Parameters ***********************

 using functional                               : Perdew Burke Ernzerhof
 relativistic treatment                         : Koelling-Harmon
 DFT+D: Semi-empirical dispersion correction    : off

 ************************* Pseudopotential Parameters **************************

 pseudopotential representation                 : reciprocal space
 <beta|phi> representation                      : reciprocal space
 spin-orbit coupling                            : off

 **************************** Basis Set Parameters *****************************

 plane wave basis set cut-off                   :   400.0000   eV
 size of standard grid                          :     1.7500
 size of   fine   gmax                          :    17.9311   1/A
 finite basis set correction                    : none

 **************************** Electronic Parameters ****************************

 number of  electrons                           :  69.00
 net charge of system                           :  0.000
 net spin   of system                           :  1.000
 number of  up  spins                           :  35.00
 number of down spins                           :  34.00
 treating system as spin-polarized
 number of bands                                :         42

 ********************* Electronic Minimization Parameters **********************

 Method: Treating system as metallic with density mixing treatment of electrons,
         and number of  SD  steps               :          1
         and number of  CG  steps               :          4

 total energy / atom convergence tol.           : 0.1000E-04   eV
 eigen-energy convergence tolerance             : 0.1000E-05   eV
 max force / atom convergence tol.              : ignored
 convergence tolerance window                   :          3   cycles
 max. number of SCF cycles                      :        100
 number of fixed-spin iterations                :         10
 smearing scheme                                : Gaussian
 smearing width                                 : 0.2000       eV
 Fermi energy convergence tolerance             : 0.2721E-13   eV
 periodic dipole correction                     : NONE

 ************************** Density Mixing Parameters **************************

 density-mixing scheme                          : Broyden
 max. length of mixing history                  :         20
 charge density mixing amplitude                : 0.8000
   spin density mixing amplitude                :  2.000
 cut-off energy for mixing                      :  400.0       eV

 *********************** Population Analysis Parameters ************************

 Population analysis with cutoff                :  3.000       A
 Population analysis output                     : summary and pdos components

 ********************** Geometry Optimization Parameters ***********************

 optimization method                            : LBFGS
 max. no. of LBFGS updates                      : unbounded
 variable cell method                           : fixed basis quality
 max. number of steps                           :         30
 estimated bulk modulus                         :  500.0       GPa
 estimated <frequency>                          :  1668.       cm-1
 geom line minimiser                            : on
 with line minimiser tolerance                  :     0.4000
  with spin fully able to relax for all steps
 total energy convergence tolerance             : 0.2000E-04   eV/atom
        max ionic |force| tolerance             : 0.5000E-01   eV/A
 max ionic |displacement| tolerance             : 0.1000E-02   A
   max |stress component| tolerance             : 0.1000       GPa
 convergence tolerance window                   :          2   steps
 backup results every                           :          5   steps
 write geom trajectory file                     : on

                                      Unit Cell
        Real Lattice(A)                      Reciprocal Lattice(1/A)
     5.6084130     0.0000000     0.0000000        1.120314304   0.000000000   0.000000000
     0.0000000     5.6084130     0.0000000        0.000000000   1.120314304   0.000000000
     0.0000000     0.0000000    13.7500000        0.000000000   0.000000000   0.456958931

                       Lattice parameters(A)       Cell Angles
                    a =      5.608413          alpha =   90.000000
                    b =      5.608413          beta  =   90.000000
                    c =     13.750000          gamma =   90.000000

                       Current cell volume =           432.496575       A**3
                                   density =             1.204044   AMU/A**3
[...]
SCF loop      Energy           Fermi           Energy gain       Timer   <-- SCF
                               energy          per atom          (sec)   <-- SCF
------------------------------------------------------------------------ <-- SCF
Initial  -1.54563719E+004  0.00000000E+000                      1412.34  <-- SCF
      1  -1.54564564E+004  5.80970019E-001   6.49314562E-003    1424.92  <-- SCF
      2  -1.54564564E+004  5.80969999E-001   5.55994927E-007    1432.84  <-- SCF
      3  -1.54564564E+004  5.81029109E-001   4.40641887E-008    1440.35  <-- SCF
      4  -1.54564564E+004  5.81001062E-001   2.95845853E-008    1447.84  <-- SCF
      5  -1.54564564E+004  5.81012924E-001   2.67108907E-008    1455.35  <-- SCF
------------------------------------------------------------------------ <-- SCF

Integrated Spin Density     =   -0.181940E-05 hbar/2
Integrated |Spin Density|   =    0.189760E-03 hbar/2

Final energy, E             =  -15456.37363378     eV
Final free energy (E-TS)    =  -15456.45636319     eV
(energies not corrected for finite basis set)

NB est. 0K energy (E-0.5TS)      =  -15456.41499849     eV

[...]

 +------------+-------------+-------------+-----------------+ <-- min LBFGS
 |    Step    |   lambda    |   F.delta'  |    enthalpy     | <-- min LBFGS
 +------------+-------------+-------------+-----------------+ <-- min LBFGS
 |  previous  |    0.000000 |    0.007476 |   -15456.456346 | <-- min LBFGS
 | trial step |    1.000000 |    0.002931 |   -15456.456363 | <-- min LBFGS
 +------------+-------------+-------------+-----------------+ <-- min LBFGS

 LBFGS: finished iteration    10 with enthalpy= -1.54564564E+004 eV

 +-----------+-----------------+-----------------+------------+-----+ <-- LBFGS
 | Parameter |      value      |    tolerance    |    units   | OK? | <-- LBFGS
 +-----------+-----------------+-----------------+------------+-----+ <-- LBFGS
 |  dE/ion   |   1.356181E-006 |   2.000000E-005 |         eV | Yes | <-- LBFGS
 |  |F|max   |   2.885052E-002 |   5.000000E-002 |       eV/A | Yes | <-- LBFGS
 |  |dR|max  |   7.072174E-004 |   1.000000E-003 |          A | Yes | <-- LBFGS
 +-----------+-----------------+-----------------+------------+-----+ <-- LBFGS

 LBFGS: Geometry optimization completed successfully.

 LBFGS: Final Configuration:

                                     Cell Contents

            x  Element         Atom        Fractional coordinates of atoms  x
            x                 Number           u          v          w      x
            x  Al                1        -0.000213   0.000436   0.286436   x
            x  Al                2         0.500213   0.000436   0.286436   x
            x  Al                3        -0.000213   0.499564   0.286436   x
            x  Al                4         0.500213   0.499564   0.286436   x
            x  Al                5         0.250000   0.250000   0.441027   x
            x  Al                6         0.750000   0.250000   0.439944   x
            x  Al                7         0.250000   0.750000   0.434500   x
            x  Al                8         0.750000   0.750000   0.441195   x
            x  Al                9         0.010073   0.989196   0.591110   x
            x  Al               10         0.489927   0.989196   0.591110   x
            x  Al               11         0.010073   0.510804   0.591110   x
            x  Al               12         0.489927   0.510804   0.591110   x
            x  Au                1         0.750000   0.250000   0.699337   x

 LBFGS: Final Enthalpy     = -1.54564564E+004 eV
 LBFGS: Final <frequency>  =     570.16347 cm-1

 ************************************** Forces **************************************
 *                           Cartesian components (eV/A)                            *
 *                         x                    y                    z              *
 * Al              1     -0.00917             -0.00292              0.01244         *
 * Al              2      0.00917             -0.00292              0.01244         *
 * Al              3     -0.00917              0.00292              0.01244         *
 * Al              4      0.00917              0.00292              0.01244         *
 * Al              5      0.00000              0.00000              0.00293         *
 * Al              6     -0.00000              0.00000              0.00523         *
 * Al              7      0.00000             -0.00000             -0.02885         *
 * Al              8     -0.00000             -0.00000             -0.02628         *
 * Al              9      0.02376              0.01219              0.00035         *
 * Al             10     -0.02376              0.01219              0.00034         *
 * Al             11      0.02376             -0.01219              0.00034         *
 * Al             12     -0.02376             -0.01219              0.00034         *
 * Au              1      0.00001             -0.00000             -0.00416         *

 ***************** Stress Tensor *****************
 *          Cartesian components (GPa)           *
 *             x             y             z     *
 *  x      0.203594      0.000000     -0.000006  *
 *  y      0.000000      0.178894      0.000001  *
 *  z     -0.000006      0.000001      0.048472  *
 *  Pressure:   -0.1437                          *

 Pseudo atomic calculation performed for Al 3s2 3p1

 Converged in 14 iterations to a total energy of -107.1300 eV

 Pseudo atomic calculation performed for Au 4f14 5s2 5p6 5d10 6s1

 Converged in 33 iterations to a total energy of -14122.6601 eV
Charge spilling parameter for spin component 1 = 1.05%
Charge spilling parameter for spin component 2 = 1.05%

                   Orbital Populations
     Ion    Atom   Orbital              Up        Down      Spin
     Al     1      S                    0.667     0.667    -0.000
     Al     1      Px                   0.292     0.292     0.000
     Al     1      Py                   0.292     0.292     0.000
     Al     1      Pz                   0.232     0.232    -0.000
     Al     2      S                    0.667     0.667    -0.000
     Al     2      Px                   0.292     0.292     0.000
     Al     2      Py                   0.292     0.292     0.000
     Al     2      Pz                   0.232     0.232    -0.000
     Al     3      S                    0.667     0.667    -0.000
     Al     3      Px                   0.292     0.292     0.000
     Al     3      Py                   0.292     0.292     0.000
     Al     3      Pz                   0.232     0.232    -0.000
     Al     4      S                    0.667     0.667    -0.000
     Al     4      Px                   0.292     0.292     0.000
     Al     4      Py                   0.292     0.292     0.000
     Al     4      Pz                   0.232     0.232    -0.000
     Al     5      S                    0.561     0.561     0.000
     Al     5      Px                   0.326     0.326     0.000
     Al     5      Py                   0.321     0.322    -0.000
     Al     5      Pz                   0.327     0.327     0.000
     Al     6      S                    0.561     0.561    -0.000
     Al     6      Px                   0.327     0.327     0.000
     Al     6      Py                   0.327     0.327    -0.000
     Al     6      Pz                   0.311     0.311    -0.000
     Al     7      S                    0.561     0.562    -0.000
     Al     7      Px                   0.318     0.318     0.000
     Al     7      Py                   0.318     0.318    -0.000
     Al     7      Pz                   0.312     0.312    -0.000
     Al     8      S                    0.561     0.561    -0.000
     Al     8      Px                   0.322     0.322     0.000
     Al     8      Py                   0.326     0.326     0.000
     Al     8      Pz                   0.327     0.327     0.000
     Al     9      S                    0.630     0.630     0.000
     Al     9      Px                   0.308     0.308     0.000
     Al     9      Py                   0.308     0.308     0.000
     Al     9      Pz                   0.281     0.281    -0.000
     Al    10      S                    0.630     0.630     0.000
     Al    10      Px                   0.308     0.308     0.000
     Al    10      Py                   0.308     0.308     0.000
     Al    10      Pz                   0.281     0.281    -0.000
     Al    11      S                    0.630     0.630     0.000
     Al    11      Px                   0.308     0.308     0.000
     Al    11      Py                   0.308     0.308     0.000
     Al    11      Pz                   0.281     0.281    -0.000
     Al    12      S                    0.630     0.630     0.000
     Al    12      Px                   0.308     0.308     0.000
     Al    12      Py                   0.308     0.308     0.000
     Al    12      Pz                   0.281     0.281    -0.000
     Au     1      S                    1.000     1.000    -0.000
     Au     1      Fxxx                 1.000     1.000    -0.000
     Au     1      Fyyy                 1.000     1.000     0.000
     Au     1      Fzzz                 1.000     1.000     0.000
     Au     1      Fxyz                 1.000     1.000    -0.000
     Au     1      Fz(xx-yy)            1.000     1.000    -0.000
     Au     1      Fy(zz-xx)            1.000     1.000     0.000
     Au     1      Fx(yy-zz)            1.000     1.000     0.000
     Au     1      Px                   1.000     1.000    -0.000
     Au     1      Py                   1.000     1.000    -0.000
     Au     1      Pz                   1.000     1.000     0.000
     Au     1      Dzz                  0.986     0.986     0.000
     Au     1      Dzy                  0.966     0.966     0.000
     Au     1      Dzx                  0.966     0.966    -0.000
     Au     1      Dxx-yy               0.977     0.977     0.000
     Au     1      Dxy                  0.947     0.947    -0.000
     Au     1      S                    0.519     0.519    -0.000
                           Total:      34.500    34.500     0.000

     Atomic Populations (Mulliken)
Species          Ion Spin      s       p       d       f      Total   Charge(e)   Spin(hbar/2)
  Al              1   up:     0.667   0.816   0.000   0.000   1.482     0.035       -0.000
                  1   dn:     0.667   0.816   0.000   0.000   1.482
  Al              2   up:     0.667   0.816   0.000   0.000   1.482     0.035       -0.000
                  2   dn:     0.667   0.816   0.000   0.000   1.482
  Al              3   up:     0.667   0.816   0.000   0.000   1.482     0.035       -0.000
                  3   dn:     0.667   0.816   0.000   0.000   1.482
  Al              4   up:     0.667   0.816   0.000   0.000   1.482     0.035       -0.000
                  4   dn:     0.667   0.816   0.000   0.000   1.482
  Al              5   up:     0.561   0.975   0.000   0.000   1.536    -0.071        0.000
                  5   dn:     0.561   0.975   0.000   0.000   1.536
  Al              6   up:     0.561   0.965   0.000   0.000   1.527    -0.053       -0.000
                  6   dn:     0.561   0.965   0.000   0.000   1.527
  Al              7   up:     0.561   0.947   0.000   0.000   1.509    -0.017       -0.000
                  7   dn:     0.562   0.947   0.000   0.000   1.509
  Al              8   up:     0.561   0.975   0.000   0.000   1.535    -0.071       -0.000
                  8   dn:     0.561   0.975   0.000   0.000   1.535
  Al              9   up:     0.630   0.896   0.000   0.000   1.526    -0.052        0.000
                  9   dn:     0.630   0.896   0.000   0.000   1.526
  Al             10   up:     0.630   0.896   0.000   0.000   1.526    -0.052        0.000
                 10   dn:     0.630   0.896   0.000   0.000   1.526
  Al             11   up:     0.630   0.896   0.000   0.000   1.526    -0.052        0.000
                 11   dn:     0.630   0.896   0.000   0.000   1.526
  Al             12   up:     0.630   0.896   0.000   0.000   1.526    -0.052        0.000
                 12   dn:     0.630   0.896   0.000   0.000   1.526
  Au              1   up:     1.519   3.000   4.842   7.000  16.360     0.280       -0.000
                  1   dn:     1.519   3.000   4.841   7.000  16.360

                 Bond                   Population        Spin       Length (A)
             Al 12 -- Au 1                   0.03        -0.00          2.54587
             Al 10 -- Au 1                   0.03        -0.00          2.54588
             Al 11 -- Au 1                   0.03        -0.00          2.54588
             Al 9  -- Au 1                   0.03        -0.00          2.54588
             Al 10 -- Al 12                  0.80         0.00          2.68302
             Al 9  -- Al 11                  0.80         0.00          2.68302
             Al 11 -- Al 12                  0.79         0.00          2.69122
             Al 9  -- Al 10                  0.79         0.00          2.69122
             Al 2  -- Al 4                   0.91        -0.00          2.79931
             Al 1  -- Al 3                   0.91        -0.00          2.79931
             Al 1  -- Al 2                   0.91        -0.00          2.80182
             Al 3  -- Al 4                   0.91         0.00          2.80182
             Al 5  -- Al 6                   0.74         0.00          2.80425
             Al 6  -- Al 8                   0.74         0.00          2.80426
             Al 5  -- Al 7                   0.66        -0.00          2.80564
             Al 7  -- Al 8                   0.66         0.00          2.80572
             Al 1  -- Al 7                  -0.05        -0.00          2.84374
             Al 2  -- Al 7                  -0.05         0.00          2.84374
             Al 3  -- Al 7                  -0.05         0.00          2.84374
             Al 4  -- Al 7                  -0.05         0.00          2.84374
             Al 8  -- Al 10                 -0.01        -0.00          2.85941
             Al 8  -- Al 12                 -0.01        -0.00          2.85941
             Al 8  -- Al 9                  -0.01        -0.00          2.85941
             Al 8  -- Al 11                 -0.01        -0.00          2.85941
             Al 5  -- Al 9                  -0.01         0.00          2.86510
             Al 5  -- Al 11                 -0.01        -0.00          2.86510
             Al 5  -- Al 10                 -0.01        -0.00          2.86510
             Al 5  -- Al 12                 -0.01        -0.00          2.86510
             Al 7  -- Al 12                 -0.08         0.00          2.87183
             Al 7  -- Al 10                 -0.08         0.00          2.87183
             Al 7  -- Al 11                 -0.08         0.00          2.87183
             Al 7  -- Al 9                  -0.08         0.00          2.87183
             Al 1  -- Al 6                  -0.06        -0.00          2.89427
             Al 3  -- Al 6                  -0.06         0.00          2.89427
             Al 2  -- Al 6                  -0.06         0.00          2.89427
             Al 4  -- Al 6                  -0.06         0.00          2.89427
             Al 1  -- Al 5                  -0.06         0.00          2.90630
             Al 2  -- Al 5                  -0.07        -0.00          2.90630
             Al 3  -- Al 5                  -0.06         0.00          2.90630
             Al 4  -- Al 5                  -0.07        -0.00          2.90630
             Al 1  -- Al 8                  -0.06         0.00          2.90920
             Al 3  -- Al 8                  -0.06        -0.00          2.90920
             Al 2  -- Al 8                  -0.06        -0.00          2.90920
             Al 4  -- Al 8                  -0.06        -0.00          2.90920
             Al 6  -- Al 9                   0.01        -0.00          2.93041
             Al 6  -- Al 11                  0.01        -0.00          2.93041
             Al 6  -- Al 10                  0.01        -0.00          2.93041
             Al 6  -- Al 12                  0.01        -0.00          2.93041

Writing analysis data to AlAu.castep_bin

Writing model to AlAu.check

 A BibTeX formatted list of references used in this run has been written to
 AlAu.bib

Initialisation time =     19.39 s
Calculation time    =   1523.70 s
Finalisation time   =      3.56 s
Total time          =   1546.65 s

Overall parallel efficiency rating: Excellent (96%)

Data was distributed by:-
k-point (16-way); efficiency rating: Excellent (96%)