 Run started: Mon, 08 Nov 2021 11:44:34 +0000

 Atomic calculation performed for Cu: 1s2 2s2 2p6 3s2 3p6 3d10 4s1

 Converged in 143 iterations to an ae energy of -44960.237 eV

   | Pseudopotential Report - Date of generation  8-11-2021   |
   | Element: Cu Ionic charge: 11.00 Level of theory: LDA     |
   | Atomic Solver: Koelling-Harmon                           |
   |               Reference Electronic Structure             |
   |         Orbital         Occupation         Energy        |
   |            3d             10.000           -0.196        |
   |            4s              1.000           -0.179        |
   |                 Pseudopotential Definition               |
   |        Beta     l      e      Rc     scheme   norm       |
   |          1      0   -0.179   1.996     qc      0         |
   |          2      0    0.250   1.996     qc      0         |
   |          3      1    0.000   1.996     qc      0         |
   |          4      1    0.250   1.996     qc      0         |
   |          5      2   -0.196   1.996     qc      0         |
   |          6      2    0.250   1.996     qc      0         |
   |         loc     3    0.000   2.206     pn      0         |
   | Augmentation charge Rinner = 0.999                       |
   | Partial core correction Rc = 0.999                       |
   | "3|2.2|2.0|1.0|10|12|13|40:41:32(qc=6)"                  |
   |      Author: Chris J. Pickard, Cambridge University      |

 Pseudo atomic calculation performed for Cu 3d10 4s1

 Converged in 53 iterations to a total energy of -1671.0550 eV
 Calculation not parallelised.

 ************************************ Title ************************************

 ***************************** General Parameters ******************************

 output verbosity                               : normal  (1)
 write checkpoint data to                       : CuVacMorse.check
 type of calculation                            : transition state search
 stress calculation                             : off
 density difference calculation                 : off
 electron localisation func (ELF) calculation   : off
 Hirshfeld analysis                             : off
 polarisation (Berry phase) analysis            : off
 molecular orbital projected DOS                : off
 deltaSCF calculation                           : off
 unlimited duration calculation
 timing information                             : on
 write extra output files                       : on
 write final potential to formatted file        : off
 write final density to formatted file          : off
 write BibTeX reference list                    : on
 write OTFG pseudopotential files               : on
 write electrostatic potential file             : on
 write bands file                               : on
 checkpoint writing                             : both castep_bin and check files

 output         length unit                     : A
 output           mass unit                     : amu
 output           time unit                     : ps
 output         charge unit                     : e
 output           spin unit                     : hbar/2
 output         energy unit                     : eV
 output          force unit                     : eV/A
 output       velocity unit                     : A/ps
 output       pressure unit                     : GPa
 output     inv_length unit                     : 1/A
 output      frequency unit                     : cm-1
 output force constant unit                     : eV/A**2
 output         volume unit                     : A**3
 output   IR intensity unit                     : (D/A)**2/amu
 output         dipole unit                     : D
 output         efield unit                     : eV/A/e
 output        entropy unit                     : J/mol/K
 output    efield chi2 unit                     : pm/V

 wavefunctions paging                           : none
 random number generator seed                   : randomised (114434305)
 data distribution                              : optimal for this architecture

 *********************** Exchange-Correlation Parameters ***********************

 using functional                               : Local Density Approximation
 relativistic treatment                         : Koelling-Harmon
 DFT+D: Semi-empirical dispersion correction    : off

 ************************* Pseudopotential Parameters **************************

 pseudopotential representation                 : reciprocal space
 <beta|phi> representation                      : reciprocal space
 spin-orbit coupling                            : off

 **************************** Basis Set Parameters *****************************

 basis set accuracy                             : FINE
 plane wave basis set cut-off                   :   353.7480   eV
 size of standard grid                          :     1.7500
 size of   fine   gmax                          :    16.8626   1/A
 largest prime factor in FFT                    :          5
 finite basis set correction                    : none

 **************************** Electronic Parameters ****************************

 number of  electrons                           :  2.000
 net charge of system                           :  0.000
 net spin   of system                           :  1.000
 number of  up  spins                           :  1.000
 number of down spins                           :  1.000
 treating system as spin-polarized
 number of bands                                :        707

 ********************* Electronic Minimization Parameters **********************

 Method: Treating system as metallic with density mixing treatment of electrons,
         and number of  SD  steps               :          1
         and number of  CG  steps               :          4

 total energy / atom convergence tol.           : 0.1000E-04   eV
 eigen-energy convergence tolerance             : 0.1000E-05   eV
 max force / atom convergence tol.              : ignored
 convergence tolerance window                   :          3   cycles
 max. number of SCF cycles                      :         30
 number of fixed-spin iterations                :         10
 smearing scheme                                : Gaussian
 smearing width                                 : 0.2000       eV
 Fermi energy convergence tolerance             : 0.2721E-13   eV
 periodic dipole correction                     : NONE

 ************************** Density Mixing Parameters **************************

 density-mixing scheme                          : Broyden
 max. length of mixing history                  :         20
 charge density mixing amplitude                : 0.8000
   spin density mixing amplitude                :  2.000
 charge density mixing g-vector                 :  1.500       1/A
   spin density mixing g-vector                 :  1.500       1/A

 *********************** Population Analysis Parameters ************************

 Population analysis with cutoff                :  3.000       A
 Population analysis output                     : summary and pdos components

 ********************* Transition State Search Parameters **********************

 search method                                  : NEB
 max. ionic |force| tolerance                   : 0.1000E-02   eV/A
 max. ionic |displacement| tolerance            : 0.1000E-02   A
 max. ionic |energy| tolerance                  : 0.2000E-04   eV
 NEB method                                     : ODE12R
 max. number of NEB iterations                  :        100
 max. number of path points                     :          5
 inter-bead spring constant                     : 0.1000       eV/A**2
 tangent mode                                   : SPLINE
 central bead is                                : sliding down
 spring forces are                              : not normed

 ******************************* Developer Code ********************************

 PP=T
 pp: MORS=T MORS_CUT=5.61 MORS_R=2.55 MORS_K=113.48704575606354 MORS_D=23.060922344650095 :endpp

                                      Unit Cell
        Real Lattice(A)                      Reciprocal Lattice(1/A)
    10.8187340     0.0000000     0.0000000        0.580768998   0.000000000   0.000000000
     0.0000000    10.8187340     0.0000000        0.000000000   0.580768998   0.000000000
     0.0000000     0.0000000    10.8187340        0.000000000   0.000000000   0.580768998

                       Lattice parameters(A)       Cell Angles
                    a =     10.818734          alpha =   90.000000
                    b =     10.818734          beta  =   90.000000
                    c =     10.818734          gamma =   90.000000

                       Current cell volume =          1266.278779       A**3
                                   density =             5.369609   AMU/A**3
                                           =             8.916445     g/cm^3

                                     Cell Contents
                         Total number of ions in cell =  107
                      Total number of species in cell =    1
                        Max number of any one species =  107

            x                          Reactant                        x
            x  Element    Atom        Fractional coordinates of atoms  x
            x            Number           u          v          w      x
            x  Cu           1        -0.000524   0.000000   0.000000   x
            x  Cu           2        -0.000605   0.166061   0.166061   x
            x  Cu           3         0.166085   0.000000   0.165903   x
            x  Cu           4         0.166085   0.165903   0.000000   x
            x  Cu           5        -0.000763   0.000000   0.332752   x
            x  Cu           6        -0.000798   0.165869   0.500000   x
            x  Cu           7         0.165173   0.000000   0.500000   x
            x  Cu           8         0.165756   0.165431   0.332422   x
            x  Cu           9        -0.000763   0.000000   0.667248   x
            x  Cu          10        -0.000605   0.166061   0.833939   x
            x  Cu          11         0.166085   0.000000   0.834097   x
            x  Cu          12         0.165756   0.165431   0.667578   x
            x  Cu          13        -0.000763   0.332752   0.000000   x
            x  Cu          14        -0.000798   0.500000   0.165869   x
            x  Cu          15         0.165756   0.332422   0.165431   x
            x  Cu          16         0.165173   0.500000   0.000000   x
            x  Cu          17        -0.001236   0.332422   0.332422   x
            x  Cu          18        -0.003678   0.500000   0.500000   x
            x  Cu          19         0.165560   0.332227   0.500000   x
            x  Cu          20         0.165560   0.500000   0.332227   x
            x  Cu          21        -0.001236   0.332422   0.667578   x
            x  Cu          22        -0.000798   0.500000   0.834131   x
            x  Cu          23         0.165756   0.332422   0.834569   x
            x  Cu          24         0.165560   0.500000   0.667773   x
[...]
            x  Cu         107         0.833333   0.834097   0.667248   x

            x                          Product                         x
            x  Element    Atom        Fractional coordinates of atoms  x
            x            Number           u          v          w      x
            x  Cu           1        -0.000647  -0.000647  -0.000647   x
            x  Cu           2        -0.001202   0.165731   0.165731   x
            x  Cu           3         0.165731  -0.001202   0.165731   x
            x  Cu           4         0.165731   0.165731  -0.001202   x
            x  Cu           5        -0.000832  -0.000832   0.333311   x
            x  Cu           6        -0.001202   0.165731   0.500890   x
            x  Cu           7         0.165731  -0.001202   0.500890   x
            x  Cu           8         0.165546   0.165546   0.333311   x
            x  Cu           9        -0.000647  -0.000647   0.667268   x
            x  Cu          10        -0.000739   0.166101   0.833369   x
            x  Cu          11         0.166101  -0.000739   0.833369   x
            x  Cu          12         0.165731   0.165731   0.667915   x
            x  Cu          13        -0.000832   0.333311  -0.000832   x
            x  Cu          14        -0.001202   0.500890   0.165731   x
            x  Cu          15         0.165546   0.333311   0.165546   x
            x  Cu          16         0.165731   0.500890  -0.001202   x
            x  Cu          17        -0.003697   0.333311   0.333311   x
            x  Cu          18        -0.001202   0.500890   0.500890   x
            x  Cu          19         0.165546   0.333311   0.501075   x
            x  Cu          20         0.165546   0.501075   0.333311   x
            x  Cu          21        -0.000832   0.333311   0.667453   x
            x  Cu          22        -0.000739   0.500613   0.833369   x
            x  Cu          23         0.165176   0.333311   0.833369   x
            x  Cu          24         0.165731   0.500890   0.667915   x
            x  Cu          25        -0.000647   0.667268  -0.000647   x
            x  Cu          26        -0.000739   0.833369   0.166101   x
            x  Cu          27         0.165731   0.667915   0.165731   x
            x  Cu          28         0.166101   0.833369  -0.000739   x
            x  Cu          29        -0.000832   0.667453   0.333311   x
            x  Cu          30        -0.000739   0.833369   0.500613   x
            x  Cu          31         0.165731   0.667915   0.500890   x
            x  Cu          32         0.165176   0.833369   0.333311   x
            x  Cu          33        -0.000647   0.667268   0.667268   x
            x  Cu          34        -0.000555   0.833369   0.833369   x
            x  Cu          35         0.166101   0.667453   0.833369   x
            x  Cu          36         0.166101   0.833369   0.667453   x
            x  Cu          37         0.333311  -0.000832  -0.000832   x
            x  Cu          38         0.333311   0.165546   0.165546   x
            x  Cu          39         0.500890  -0.001202   0.165731   x
            x  Cu          40         0.500890   0.165731  -0.001202   x
            x  Cu          41         0.333311  -0.003697   0.333311   x
            x  Cu          42         0.333311   0.165546   0.501075   x
            x  Cu          43         0.500890  -0.001202   0.500890   x
            x  Cu          44         0.501075   0.165546   0.333311   x
            x  Cu          45         0.333311  -0.000832   0.667453   x
            x  Cu          46         0.333311   0.165176   0.833369   x
            x  Cu          47         0.500613  -0.000739   0.833369   x
            x  Cu          48         0.500890   0.165731   0.667915   x
            x  Cu          49         0.333311   0.333311  -0.003697   x
            x  Cu          50         0.333311   0.501075   0.165546   x
            x  Cu          51         0.501075   0.333311   0.165546   x
            x  Cu          52         0.500890   0.500890  -0.001202   x
            x  Cu          53         0.333311   0.501075   0.501075   x
            x  Cu          54         0.501075   0.333311   0.501075   x
            x  Cu          55         0.501075   0.501075   0.333311   x
            x  Cu          56         0.333311   0.333311   0.670319   x
            x  Cu          57         0.333311   0.501537   0.833369   x
            x  Cu          58         0.501537   0.333311   0.833369   x
            x  Cu          59         0.500890   0.500890   0.667915   x
            x  Cu          60         0.333311   0.667453  -0.000832   x
[...]
            x  Cu          93         0.667453   0.500613   0.833369   x
            x  Cu          94         0.833369   0.333311   0.833369   x
            x  Cu          95         0.833369   0.500613   0.667453   x
            x  Cu          96         0.667268   0.667268  -0.000647   x
            x  Cu          97         0.667453   0.833369   0.166101   x
            x  Cu          98         0.833369   0.667453   0.166101   x
            x  Cu          99         0.833369   0.833369  -0.000555   x
            x  Cu         100         0.667453   0.667453   0.333311   x
            x  Cu         101         0.667453   0.833369   0.500613   x
            x  Cu         102         0.833369   0.667453   0.500613   x
            x  Cu         103         0.833369   0.833369   0.333311   x
            x  Cu         104         0.667268   0.667268   0.667268   x
            x  Cu         105         0.667176   0.833369   0.833369   x
            x  Cu         106         0.833369   0.667176   0.833369   x
            x  Cu         107         0.833369   0.833369   0.667176   x

                         No user defined ionic velocities

                                   Details of Species

                               Mass of species in AMU
                                    Cu   63.5460000

                          Electric Quadrupole Moment (Barn)
                                    Cu   -0.2200000 Isotope 63

                          Files used for pseudopotentials:
                                    Cu 3|2.2|2.0|1.0|10|12|13|40:41:32(qc=6)

                              k-Points For BZ Sampling
                       MP grid size for SCF calculation is  1  1  1
                            with an offset of   0.000  0.000  0.000
                       Number of kpoints used =             1

                               Symmetry and Constraints

                      Maximum deviation from symmetry =  0.00000         ANG

                      Number of symmetry operations   =           1
         There are no ionic constraints specified or generated for this cell
                      Point group of crystal =     1: C1, 1, 1
                      Space group of crystal =   221: Pm-3m, -P 4 2 3

             Set iprint > 1 for details on symmetry rotations/translations

                         Centre of mass is NOT constrained

                         Number of cell constraints= 0
                         Cell constraints are:  1 2 3 4 5 6

                         External pressure/stress (GPa)
                          0.00000   0.00000   0.00000
                                    0.00000   0.00000
                                              0.00000

   ************************     PairParams     ************************
   *                               Two Body                           *
   *                               Cu                                 *
   *    r                      5.6100000000                  A        * <-- MORS
   *  r_d                      2.5500000000                  A        * <-- MORS
   *    k                      4.9212640435                  eV/A^2   * <-- MORS
   *    d                      1.0000162326                  eV       * <-- MORS

Final energy =   1960.675285279     eV
+++++++++++++++++++++++ Starting Transition State Search +++++++++++++++++++++++

 |                  Nudged Elastic Band optimization                 |

     NEB elastic constant:      0.001029 Hartree/Bohr^2
Optimisation algorithm:     ode12r
Tangent mode:     Spline interpolation
 Number of task farms to use:           1
  --- Initialising NEB constraints ---
     Fixed            0  degrees of freedom
     Using            0  Lagrange multipliers

 Reactant structure energy:    1960.6752852790510       eV
 Product structure energy:    1960.6757093384701       eV

     Iteration:     1

     Iteration:     2
         Max Force Component:             0.884593 eV/Ang (0)
         Max Displacement Component:      0.083670 Ang (0)

  Saving model to checkpoint file...

Writing analysis data to CuVacMorse.castep_bin

Writing model to CuVacMorse.check
     Iteration:     3
         Max Force Component:             0.656677 eV/Ang (0)
         Max Displacement Component:      0.016890 Ang (0)

[...]

  Saving model to checkpoint file...

[...]

Writing model to CuVacMorse.check
     Iteration:    99
         Max Force Component:             0.206563 eV/Ang (0)
         Max Displacement Component:      0.015464 Ang (0)

     Iteration:   100
         Max Force Component:             0.092715 eV/Ang (0)
         Max Displacement Component:      0.000000 Ang (1)

     Failed to converge

 ************************************** Forces **************************************
 *                           Cartesian components (eV/A)                            *
 *                         x                    y                    z              *
 * Cu              1      0.00983             -0.00024             -0.00024         *
 * Cu              2      0.01019              0.00956              0.00956         *
 * Cu              3      0.00593             -0.00023              0.01468         *
 * Cu              4      0.00593              0.01468             -0.00023         *
 * Cu              5      0.01486             -0.00039              0.00524         *
 * Cu              6      0.00036              0.00142              0.00016         *
 * Cu              7      0.07252             -0.00023              0.00006         *
 * Cu              8      0.00246             -0.00449              0.00239         *
 * Cu              9      0.01461             -0.00039             -0.00553         *
 * Cu             10      0.01015              0.00955             -0.00930         *
 * Cu             11      0.00597             -0.00023             -0.01441         *
 * Cu             12      0.00265             -0.00475             -0.00272         *
 * Cu             13      0.01486              0.00524             -0.00039         *
 * Cu             14      0.00036              0.00016              0.00142         *
 * Cu             15      0.00246              0.00239             -0.00449         *
 * Cu             16      0.07252              0.00006             -0.00023         *
 * Cu             17     -0.00663              0.00200              0.00200         *
 * Cu             18      0.01675              0.00048              0.00048         *
 * Cu             19      0.02003              0.02245              0.00060         *
 * Cu             20      0.02003              0.00060              0.02245         *
 * Cu             21     -0.00622              0.00224             -0.00232         *
 * Cu             22      0.00122              0.00016             -0.00134         *
 * Cu             23      0.00266              0.00239              0.00506         *
 * Cu             24      0.02191             -0.00000             -0.02391         *
 * Cu             25      0.01461             -0.00553             -0.00039         *
 * Cu             26      0.01015             -0.00930              0.00955         *
 * Cu             27      0.00265             -0.00272             -0.00475         *
 * Cu             28      0.00597             -0.01441             -0.00023         *
 * Cu             29     -0.00622             -0.00232              0.00224         *
 * Cu             30      0.00122             -0.00134              0.00016         *
 * Cu             31      0.02191             -0.02391             -0.00000         *
 * Cu             32      0.00266              0.00506              0.00239         *
 * Cu             33     -0.00544             -0.00282             -0.00282         *
 * Cu             34      0.01015             -0.00939             -0.00939         *
 * Cu             35      0.00282             -0.00288              0.00503         *
 * Cu             36      0.00282              0.00503             -0.00288         *
 * Cu             37     -0.00000             -0.00018             -0.00018         *
 * Cu             38      0.00000              0.00244              0.00244         *
 * Cu             39     -0.00593             -0.00023              0.01469         *
 * Cu             40     -0.00593              0.01469             -0.00023         *
 * Cu             41      0.00000             -0.00037              0.07211         *
 * Cu             42      0.00000              0.01809             -0.00017         *
 * Cu             43     -0.07252             -0.00023              0.00006         *
 * Cu             44     -0.00248             -0.00449              0.00239         *
 * Cu             45      0.00000             -0.00011             -0.07269         *
 * Cu             46      0.00000              0.00244             -0.00221         *
 * Cu             47     -0.00597             -0.00023             -0.01441         *
 * Cu             48     -0.00266             -0.00475             -0.00272         *
 * Cu             49      0.00000              0.07211             -0.00037         *
 * Cu             50      0.00000             -0.00017              0.01809         *
 * Cu             51     -0.00248              0.00239             -0.00449         *
 * Cu             52     -0.07252              0.00006             -0.00023         *
 * Cu             53     -0.00000              0.02944              0.02944         *
 * Cu             54     -0.02002              0.02245              0.00060         *
 * Cu             55     -0.02002              0.00060              0.02245         *
 * Cu             56     -0.00000              0.02344             -0.02455         *
 * Cu             57      0.00000              0.00012             -0.01651         *
 * Cu             58     -0.00268              0.00239              0.00506         *
 * Cu             59     -0.02191             -0.00000             -0.02392         *
 * Cu             60      0.00000             -0.07269             -0.00011         *
[...]
 * Cu             93     -0.00121              0.00016             -0.00134         *
 * Cu             94      0.00001              0.00572             -0.01354         *
 * Cu             95      0.00001              0.00023             -0.07110         *
 * Cu             96     -0.01461             -0.00553             -0.00040         *
 * Cu             97     -0.01014             -0.00930              0.00954         *
 * Cu             98      0.00000             -0.00586              0.01393         *
 * Cu             99      0.00000             -0.00880             -0.00030         *
 * Cu            100      0.00622             -0.00232              0.00224         *
 * Cu            101     -0.00121             -0.00134              0.00016         *
 * Cu            102      0.00001             -0.07110              0.00023         *
 * Cu            103      0.00001             -0.01354              0.00572         *
 * Cu            104      0.00544             -0.00282             -0.00282         *
 * Cu            105     -0.01015             -0.00939             -0.00939         *
 * Cu            106      0.00000             -0.00597             -0.01359         *
 * Cu            107      0.00000             -0.01359             -0.00597         *

 ***************** Stress Tensor *****************
 *          Cartesian components (GPa)           *
 *             x             y             z     *
 *  x     68.643080     -0.000000     -0.000000  *
 *  y     -0.000000     68.639553     -0.000864  *
 *  z     -0.000000     -0.000864     68.639553  *
 *  Pressure:  -68.6407                          *

Writing analysis data to CuVacMorse.castep_bin

Writing model to CuVacMorse.check

 A BibTeX formatted list of references used in this run has been written to
 CuVacMorse.bib

Initialisation time =     35.37 s
Calculation time    =    356.82 s
Finalisation time   =      4.33 s
Total time          =    396.51 s