 Compiled for linux_x86_64_ifort on Thu, 05 Aug 2021 16:13:05 +0100
 from code version
 f12f38a+  new-neb-implementation  Thu Aug 5 15:34:27 2021 +0100
 Compiler: Intel Fortran 18.0.3.222; Optimisation: fast
 MATHLIBS: Intel MKL(2018.0.3) (LAPACK version 3.7.0)
 FFT Lib : default
 Fundamental constants values: CODATA 2014

 Run started: Mon, 09 Aug 2021 17:23:24 +0100

 Atomic calculation performed for Al: 1s2 2s2 2p6 3s2 3p1

 Converged in 54 iterations to an ae energy of -6603.783 eV

   | Pseudopotential Report - Date of generation  9-08-2021   |
   | Element: Al Ionic charge:  3.00 Level of theory: PBE     |
   | Atomic Solver: Koelling-Harmon                           |
   |               Reference Electronic Structure             |
   |         Orbital         Occupation         Energy        |
   |            3s              2.000           -0.285        |
   |            3p              1.000           -0.100        |
   |                 Pseudopotential Definition               |
   |        Beta     l      e      Rc     scheme   norm       |
   |          1      0   -0.285   2.192     qc      0         |
   |          2      0    0.250   2.192     qc      0         |
   |          3      1   -0.100   2.192     qc      0         |
   |          4      1    0.250   2.192     qc      0         |
   |          5      2    0.000   2.000     qc      0         |
   |          6      2    0.250   2.000     qc      0         |
   |         loc     3    0.000   2.192     pn      0         |
   | Augmentation charge Rinner = 1.398                       |
   | Partial core correction Rc = 1.398                       |
   | "3|2.2|2.2|1.4|4|5|5|30:31:32U2U2"                       |
   |      Author: Chris J. Pickard, Cambridge University      |

 Atomic calculation performed for Au:

 Converged in 94 iterations to an ae energy of -517336.889 eV

   | Pseudopotential Report - Date of generation  9-08-2021   |
   | Element: Au Ionic charge: 33.00 Level of theory: PBE     |
   | Atomic Solver: Koelling-Harmon                           |
   |               Reference Electronic Structure             |
   |         Orbital         Occupation         Energy        |
   |            5s              2.000           -3.982        |
   |            4f             14.000           -2.981        |
   |            5p              6.000           -2.197        |
   |            5d             10.000           -0.253        |
   |            6s              1.000           -0.212        |
   |                 Pseudopotential Definition               |
   |        Beta     l      e      Rc     scheme   norm       |
   |          1      0   -3.982   2.392     qc      0         |
   |          2      0   -0.212   2.392     qc      0         |
   |          3      0    0.250   2.392     qc      0         |
   |          4      1   -2.197   2.392     qc      0         |
   |          5      1    0.250   2.392     qc      0         |
   |          6      2   -0.253   2.392     qc      0         |
   |          7      2    0.250   2.392     qc      0         |
   |          8      3   -2.981   2.392     qc      0         |
   |          9      3    0.250   2.392     qc      0         |
   |         loc     3    0.000   2.392     pn      0         |
   | Augmentation charge Rinner = 1.686                       |
   | Partial core correction Rc = 1.686                       |
   | "3|2.4|9|10|11|50U:60:51:52:43(qc=6)"                    |
   |      Author: Chris J. Pickard, Cambridge University      |

 Pseudo atomic calculation performed for Al 3s2 3p1

 Converged in 14 iterations to a total energy of -107.1253 eV

 Pseudo atomic calculation performed for Au 4f14 5s2 5p6 5d10 6s1

 Converged in 32 iterations to a total energy of -14111.4690 eV
 Calculation parallelised over 8 processes.
 Data is distributed by k-point(8-way)

 ************************************ Title ************************************

 ***************************** General Parameters ******************************

 output verbosity                               : normal  (1)
 write checkpoint data to                       : AlAu_cut_200.0_kpn_4x4x2.check
 type of calculation                            : single point energy
 stress calculation                             : on
 density difference calculation                 : off
 electron localisation func (ELF) calculation   : off
 Hirshfeld analysis                             : off
 polarisation (Berry phase) analysis            : off
 molecular orbital projected DOS                : off
 deltaSCF calculation                           : off
 unlimited duration calculation
 timing information                             : on
 write extra output files                       : on
 write final potential to formatted file        : off
 write final density to formatted file          : off
 write BibTeX reference list                    : on
 write OTFG pseudopotential files               : on
 write electrostatic potential file             : on
 write bands file                               : on
 checkpoint writing                             : write castep_bin only

 output         length unit                     : A
 output           mass unit                     : amu
 output           time unit                     : ps
 output         charge unit                     : e
 output           spin unit                     : hbar/2
 output         energy unit                     : eV
 output          force unit                     : eV/A
 output       velocity unit                     : A/ps
 output       pressure unit                     : GPa
 output     inv_length unit                     : 1/A
 output      frequency unit                     : cm-1
 output force constant unit                     : eV/A**2
 output         volume unit                     : A**3
 output   IR intensity unit                     : (D/A)**2/amu
 output         dipole unit                     : D
 output         efield unit                     : eV/A/e
 output        entropy unit                     : J/mol/K
 output    efield chi2 unit                     : pm/V

 wavefunctions paging                           : none
 random number generator seed                   : randomised (172324405)
 data distribution                              : optimal for this architecture

 *********************** Exchange-Correlation Parameters ***********************

 using functional                               : Perdew Burke Ernzerhof
 relativistic treatment                         : Koelling-Harmon
 DFT+D: Semi-empirical dispersion correction    : off

 ************************* Pseudopotential Parameters **************************

 pseudopotential representation                 : reciprocal space
 <beta|phi> representation                      : reciprocal space
 spin-orbit coupling                            : off

 **************************** Basis Set Parameters *****************************

 plane wave basis set cut-off                   :   200.0000   eV
 size of standard grid                          :     1.7500
 size of   fine   gmax                          :    12.6792   1/A
 finite basis set correction                    : automatic
 number of sample energies                      :          3
           sample  spacing                      :     5.0000   eV

 **************************** Electronic Parameters ****************************

 number of  electrons                           :  69.00
 net charge of system                           :  0.000
 net spin   of system                           :  1.000
 number of  up  spins                           :  35.00
 number of down spins                           :  34.00
 treating system as spin-polarized
 number of bands                                :         42

 ********************* Electronic Minimization Parameters **********************

 Method: Treating system as metallic with density mixing treatment of electrons,
         and number of  SD  steps               :          1
         and number of  CG  steps               :          4

 total energy / atom convergence tol.           : 0.1000E-04   eV
 eigen-energy convergence tolerance             : 0.1000E-05   eV
 max force / atom convergence tol.              : ignored
 convergence tolerance window                   :          3   cycles
 max. number of SCF cycles                      :        100
 number of fixed-spin iterations                :         10
 smearing scheme                                : Gaussian
 smearing width                                 : 0.2000       eV
 Fermi energy convergence tolerance             : 0.2721E-13   eV
 periodic dipole correction                     : NONE

 ************************** Density Mixing Parameters **************************

 density-mixing scheme                          : Broyden
 max. length of mixing history                  :         20
 charge density mixing amplitude                : 0.8000
   spin density mixing amplitude                :  2.000
 cut-off energy for mixing                      :  200.0       eV

 *********************** Population Analysis Parameters ************************

 Population analysis with cutoff                :  3.000       A
 Population analysis output                     : summary and pdos components

                                      Unit Cell
        Real Lattice(A)                      Reciprocal Lattice(1/A)
     5.7275650     0.0000000     0.0000000        1.097008119   0.000000000   0.000000000
     0.0000000     5.7275650     0.0000000        0.000000000   1.097008119   0.000000000
     0.0000000     0.0000000    13.7500000        0.000000000   0.000000000   0.456958931

                       Lattice parameters(A)       Cell Angles
                    a =      5.727565          alpha =   90.000000
                    b =      5.727565          beta  =   90.000000
                    c =     13.750000          gamma =   90.000000

                       Current cell volume =           451.068761       A**3
                                   density =             1.154469   AMU/A**3
                                           =             1.917041     g/cm^3

                                     Cell Contents
                         Total number of ions in cell =   13
                      Total number of species in cell =    2
                        Max number of any one species =   12

            x  Element    Atom        Fractional coordinates of atoms  x
            x            Number           u          v          w      x
            x  Al           1         0.004336  -0.001207   0.293264   x
            x  Al           2         0.513295  -0.002044   0.290058   x
            x  Al           3         0.013786   0.506699   0.289202   x
            x  Al           4         0.504736   0.495954   0.289216   x
            x  Al           5         0.252112   0.233298   0.431909   x
            x  Al           6         0.745092   0.241158   0.439325   x
            x  Al           7         0.242073   0.737671   0.443511   x
[...]

                          Files used for pseudopotentials:
                                    Al 3|2.2|2.2|1.4|4|5|5|30:31:32U2U2
                                    Au 3|2.4|9|10|11|50U:60:51:52:43(qc=6)

                              k-Points For BZ Sampling
                       MP grid size for SCF calculation is  4  4  2
                            with an offset of   0.000  0.000  0.000
                       Number of kpoints used =            16

                               Symmetry and Constraints

                      Maximum deviation from symmetry =  0.00000         ANG

                      Number of symmetry operations   =           1
                      Number of ionic constraints     =           3
                      Point group of crystal =     1: C1, 1, 1
                      Space group of crystal =     1: P1, P 1

             Set iprint > 1 for details on symmetry rotations/translations

                         Centre of mass is constrained
             Set iprint > 1 for details of linear ionic constraints

                         Number of cell constraints= 0
                         Cell constraints are:  1 2 3 4 5 6

                         External pressure/stress (GPa)
                          0.00000   0.00000   0.00000
                                    0.00000   0.00000
                                              0.00000

Integrated Spin Density     =    0.772657E-04 hbar/2
Integrated |Spin Density|   =    0.148866E-02 hbar/2

Final energy, E             =  -15444.50504631     eV
Final free energy (E-TS)    =  -15444.69215491     eV
(energies not corrected for finite basis set)

NB est. 0K energy (E-0.5TS)      =  -15444.59860061     eV

Calculating total energy with cut-off of  195.000 eV.
------------------------------------------------------------------------ <-- SCF
SCF loop      Energy           Fermi           Energy gain       Timer   <-- SCF
                               energy          per atom          (sec)   <-- SCF
------------------------------------------------------------------------ <-- SCF
Initial  -1.54445046E+004  0.00000000E+000                        79.95  <-- SCF
      1  -1.54466438E+004  4.37657211E-001   1.64553745E-001      81.98  <-- SCF
      2  -1.54466463E+004  4.37703641E-001   1.89743427E-004      84.36  <-- SCF
      3  -1.54466407E+004  4.47545331E-001  -4.29769949E-004      86.56  <-- SCF
      4  -1.54466310E+004  4.42902971E-001  -7.47904928E-004      88.59  <-- SCF
      5  -1.54466310E+004  4.43269016E-001   3.21506379E-006      90.54  <-- SCF
      6  -1.54466310E+004  4.43478646E-001   9.38153466E-007      92.02  <-- SCF
------------------------------------------------------------------------ <-- SCF

[...]

Calculating total energy with cut-off of  200.000 eV.
------------------------------------------------------------------------ <-- SCF
SCF loop      Energy           Fermi           Energy gain       Timer   <-- SCF
                               energy          per atom          (sec)   <-- SCF
------------------------------------------------------------------------ <-- SCF
Initial  -1.54464432E+004  0.00000000E+000                        93.33  <-- SCF
      1  -1.54482361E+004  4.42529640E-001   1.37917441E-001      95.43  <-- SCF
      2  -1.54482380E+004  4.42559810E-001   1.45153010E-004      97.81  <-- SCF
      3  -1.54482343E+004  4.50742114E-001  -2.82751373E-004     100.06  <-- SCF
      4  -1.54482269E+004  4.46522615E-001  -5.68978186E-004     102.19  <-- SCF
      5  -1.54482269E+004  4.46676270E-001   2.39041626E-006     104.11  <-- SCF
      6  -1.54482270E+004  4.46694396E-001   5.95351644E-007     105.61  <-- SCF
------------------------------------------------------------------------ <-- SCF

Integrated Spin Density     =   -0.360970E-05 hbar/2
Integrated |Spin Density|   =    0.932854E-04 hbar/2

Final energy, E             =  -15448.03989517     eV
Final free energy (E-TS)    =  -15448.22695515     eV
(energies not corrected for finite basis set)

NB est. 0K energy (E-0.5TS)      =  -15448.13342516     eV

 For future reference: finite basis dEtot/dlog(Ecut) =     -68.848785eV
 Total energy corrected for finite basis set =  -15448.243418 eV

 ************************** Forces **************************
 *               Cartesian components (eV/A)                *
 *                         x            y            z      *
 * Al              1      0.06900      0.02511     -0.45919 *
 * Al              2     -0.18070     -0.07845     -0.39057 *
 * Al              3     -0.18806     -0.10841     -0.23709 *
 * Al              4      0.10365      0.03426     -0.23270 *
 * Al              5     -0.06466      0.30457      0.40918 *
 * Al              6      0.11180      0.33241     -0.01729 *
 * Al              7      0.11487      0.11766     -0.39854 *
 * Al              8     -0.07402     -0.24931      0.05917 *
 * Al              9     -0.09655      0.06352      0.52293 *
 * Al             10      0.03955     -0.02131      0.40541 *
 * Al             11     -0.27150     -0.28019      0.48517 *
 * Al             12      0.23616     -0.17317      0.56011 *
 * Au              1      0.20045      0.03332     -0.70658 *

 ***************** Stress Tensor *****************
 *          Cartesian components (GPa)           *
 *             x             y             z     *
 *  x     -0.426681     -0.025889     -0.150299  *
 *  y     -0.025889     -0.442225     -0.056335  *
 *  z     -0.150299     -0.056335     -3.918651  *
 *  Pressure:    1.5959                          *

 Pseudo atomic calculation performed for Al 3s2 3p1

 Converged in 14 iterations to a total energy of -107.1253 eV

 Pseudo atomic calculation performed for Au 4f14 5s2 5p6 5d10 6s1

 Converged in 32 iterations to a total energy of -14111.4690 eV
Charge spilling parameter for spin component 1 = 1.08%
Charge spilling parameter for spin component 2 = 1.08%

                   Orbital Populations
     Ion    Atom   Orbital              Up        Down      Spin
     Al     1      S                    0.669     0.669    -0.000
     Al     1      Px                   0.281     0.281     0.000
     Al     1      Py                   0.285     0.285    -0.000
     Al     1      Pz                   0.249     0.249     0.000
     Al     2      S                    0.675     0.675     0.000
     Al     2      Px                   0.274     0.274     0.000
     Al     2      Py                   0.281     0.281     0.000
     Al     2      Pz                   0.246     0.246    -0.000
     Al     3      S                    0.677     0.677     0.000
     Al     3      Px                   0.282     0.282     0.000
     Al     3      Py                   0.276     0.276     0.000
     Al     3      Pz                   0.245     0.245    -0.000
     Al     4      S                    0.675     0.675    -0.000
     Al     4      Px                   0.283     0.283     0.000
     Al     4      Py                   0.280     0.280     0.000
     Al     4      Pz                   0.241     0.241    -0.000
     Al     5      S                    0.570     0.570     0.000
     Al     5      Px                   0.318     0.318     0.000
     Al     5      Py                   0.317     0.317     0.000
     Al     5      Pz                   0.327     0.327     0.000
     Al     6      S                    0.569     0.569     0.000
     Al     6      Px                   0.318     0.318     0.000
     Al     6      Py                   0.314     0.314     0.000
     Al     6      Pz                   0.338     0.338    -0.000
     Al     7      S                    0.566     0.566    -0.000
     Al     7      Px                   0.315     0.315     0.000
     Al     7      Py                   0.320     0.320    -0.000
     Al     7      Pz                   0.342     0.342    -0.000
     Al     8      S                    0.569     0.569    -0.000
     Al     8      Px                   0.312     0.312     0.000
     Al     8      Py                   0.313     0.313     0.000
     Al     8      Pz                   0.325     0.325    -0.000
     Al     9      S                    0.633     0.633    -0.000
     Al     9      Px                   0.297     0.297     0.000
     Al     9      Py                   0.300     0.300    -0.000
     Al     9      Pz                   0.295     0.295     0.000
     Al    10      S                    0.636     0.636     0.000
     Al    10      Px                   0.292     0.292     0.000
     Al    10      Py                   0.292     0.292    -0.000
     Al    10      Pz                   0.291     0.291    -0.000
     Al    11      S                    0.645     0.645    -0.000
     Al    11      Px                   0.285     0.285     0.000
     Al    11      Py                   0.290     0.290     0.000
     Al    11      Pz                   0.283     0.283    -0.000
     Al    12      S                    0.636     0.636     0.000
     Al    12      Px                   0.298     0.298     0.000
     Al    12      Py                   0.298     0.298    -0.000
     Al    12      Pz                   0.289     0.289    -0.000
     Au     1      S                    1.000     1.000    -0.000
     Au     1      Fxxx                 1.000     1.000     0.000
     Au     1      Fyyy                 1.000     1.000    -0.000
     Au     1      Fzzz                 1.000     1.000     0.000
     Au     1      Fxyz                 1.000     1.000     0.000
     Au     1      Fz(xx-yy)            1.000     1.000    -0.000
     Au     1      Fy(zz-xx)            1.000     1.000    -0.000
     Au     1      Fx(yy-zz)            1.000     1.000    -0.000
     Au     1      Px                   1.000     1.000     0.000
     Au     1      Py                   1.000     1.000    -0.000
     Au     1      Pz                   1.000     1.000    -0.000
     Au     1      Dzz                  0.987     0.987     0.000
     Au     1      Dzy                  0.968     0.968     0.000
     Au     1      Dzx                  0.968     0.968    -0.000
     Au     1      Dxx-yy               0.981     0.981     0.000
     Au     1      Dxy                  0.957     0.958    -0.000
     Au     1      S                    0.530     0.530     0.000
                           Total:      34.499    34.499    -0.000

     Atomic Populations (Mulliken)
Species          Ion Spin      s       p       d       f      Total   Charge(e)   Spin(hbar/2)
  Al              1   up:     0.669   0.814   0.000   0.000   1.483     0.034       -0.000
                  1   dn:     0.669   0.814   0.000   0.000   1.483
  Al              2   up:     0.675   0.802   0.000   0.000   1.477     0.046        0.000
                  2   dn:     0.675   0.802   0.000   0.000   1.477
  Al              3   up:     0.677   0.802   0.000   0.000   1.479     0.041        0.000
                  3   dn:     0.677   0.802   0.000   0.000   1.479
  Al              4   up:     0.675   0.804   0.000   0.000   1.478     0.044       -0.000
                  4   dn:     0.675   0.804   0.000   0.000   1.478
  Al              5   up:     0.570   0.962   0.000   0.000   1.532    -0.064        0.000
                  5   dn:     0.570   0.962   0.000   0.000   1.532
  Al              6   up:     0.569   0.970   0.000   0.000   1.539    -0.078        0.000
                  6   dn:     0.569   0.970   0.000   0.000   1.539
  Al              7   up:     0.566   0.977   0.000   0.000   1.543    -0.085       -0.000
                  7   dn:     0.566   0.977   0.000   0.000   1.543
  Al              8   up:     0.569   0.949   0.000   0.000   1.518    -0.037       -0.000
                  8   dn:     0.569   0.949   0.000   0.000   1.518
  Al              9   up:     0.633   0.892   0.000   0.000   1.525    -0.050        0.000
                  9   dn:     0.633   0.892   0.000   0.000   1.525
  Al             10   up:     0.636   0.875   0.000   0.000   1.511    -0.022       -0.000
                 10   dn:     0.636   0.875   0.000   0.000   1.511
  Al             11   up:     0.645   0.858   0.000   0.000   1.503    -0.006       -0.000
                 11   dn:     0.645   0.858   0.000   0.000   1.503
  Al             12   up:     0.636   0.884   0.000   0.000   1.520    -0.040       -0.000
                 12   dn:     0.636   0.884   0.000   0.000   1.520
  Au              1   up:     1.530   3.000   4.861   7.000  16.391     0.219        0.000
                  1   dn:     1.530   3.000   4.861   7.000  16.391

                 Bond                   Population        Spin       Length (A)
             Al 10 -- Au 1                   0.07        -0.00          2.57897
             Al 9  -- Au 1                   0.05         0.00          2.60463
             Al 12 -- Au 1                   0.02        -0.00          2.68566
             Al 7  -- Al 12                  0.09        -0.00          2.71042
             Al 7  -- Al 11                  0.07         0.00          2.72447
             Al 1  -- Al 5                   0.03        -0.00          2.72988
             Al 11 -- Au 1                  -0.01         0.00          2.73337
             Al 2  -- Al 8                  -0.00        -0.00          2.77091
             Al 9  -- Al 11                  0.75         0.00          2.77730
             Al 6  -- Al 9                   0.06         0.00          2.78473
             Al 10 -- Al 12                  0.71        -0.00          2.79393
             Al 2  -- Al 5                  -0.04        -0.00          2.80340
             Al 7  -- Al 9                  -0.03        -0.00          2.80369
             Al 1  -- Al 8                  -0.06        -0.00          2.80495
             Al 6  -- Al 10                  0.03        -0.00          2.80869
             Al 6  -- Al 8                   0.60        -0.00          2.81116
             Al 3  -- Al 4                   0.86        -0.00          2.81262
             Al 1  -- Al 2                   0.82        -0.00          2.81282
             Al 2  -- Al 6                  -0.03        -0.00          2.81342
             Al 9  -- Al 10                  0.70        -0.00          2.81833
             Al 1  -- Al 3                   0.82         0.00          2.81957
             Al 3  -- Al 7                   0.01        -0.00          2.82162
             Al 4  -- Al 8                  -0.01         0.00          2.82445
             Al 5  -- Al 6                   0.64        -0.00          2.82577
             Al 7  -- Al 8                   0.58         0.00          2.83432
             Al 11 -- Al 12                  0.75         0.00          2.84209
             Al 5  -- Al 7                   0.62        -0.00          2.84379
             Al 2  -- Al 4                   0.83         0.00          2.85276
             Al 5  -- Al 9                   0.07         0.00          2.85532
             Al 7  -- Al 10                 -0.06         0.00          2.85638
             Al 1  -- Al 6                  -0.06         0.00          2.85747
             Al 3  -- Al 5                  -0.06         0.00          2.85758
             Al 3  -- Al 8                  -0.06        -0.00          2.85967
             Al 8  -- Al 11                 -0.05         0.00          2.86198
             Al 4  -- Al 5                  -0.08         0.00          2.86467
             Al 8  -- Al 9                  -0.09        -0.00          2.86666
             Al 6  -- Al 12                 -0.01         0.00          2.87038
             Al 8  -- Al 10                 -0.08         0.00          2.87300
             Al 8  -- Al 12                 -0.05        -0.00          2.87347
             Al 4  -- Al 6                  -0.03        -0.00          2.87837
             Al 5  -- Al 10                  0.05        -0.00          2.88655
             Al 1  -- Al 7                  -0.07         0.00          2.89116
             Al 5  -- Al 12                 -0.01         0.00          2.92105
             Al 6  -- Al 11                 -0.03        -0.00          2.92580
             Al 4  -- Al 7                  -0.07        -0.00          2.94636
             Al 3  -- Al 6                  -0.11         0.00          2.99039

Writing analysis data to AlAu_cut_200.0_kpn_4x4x2.castep_bin
Initialisation time =     23.77 s
Calculation time    =     99.89 s
Finalisation time   =      0.25 s
Total time          =    123.90 s

Overall parallel efficiency rating: Very good (81%)

Data was distributed by:-
k-point (8-way); efficiency rating: Very good (82%)

Parallel notes:
1) Calculation only took 123.7 s, so efficiency estimates may be inaccurate.